*Heading
** Job name: C1M2-H0002-NP Model name: C1M2-NP
** Generated by: Abaqus/CAE 2020
*Preprint, echo=NO, model=NO, history=NO, contact=NO
**
** PARTS
**
*Part, name=Part-1
*Node
1, 0.04990000, 0.04105000
2, 0.00000000, 0.04105000
3, 0.00000000, 0.00000000
4, 0.04990000, 0.00000000
5, 0.10570000, 0.05895000
6, 0.04990000, 0.05895000
7, 0.10570000, 0.04105000
8, 0.00000000, 0.05895000
9, 0.04990000, 0.14105000
10, 0.00000000, 0.14105000
11, 0.00000000, 0.15895000
12, 0.04990000, 0.15895000
13, 0.04990000, 0.20000001
14, 0.00000000, 0.20000001
15, 0.27900001, 0.04105000
16, 0.34640001, 0.04105000
17, 0.34640001, 0.05895000
18, 0.27900001, 0.05895000
19, 0.22320000, 0.04105000
20, 0.22320000, 0.00000000
21, 0.27900001, 0.00000000
22, 0.22320000, 0.05895000
23, 0.10570000, 0.14105000
24, 0.10570000, 0.15895000
25, 0.10570000, 0.20000001
26, 0.34640001, 0.14105000
27, 0.27900001, 0.14105000
28, 0.22320000, 0.14105000
29, 0.27900001, 0.20000001
30, 0.27900001, 0.15895000
31, 0.34640001, 0.15895000
32, 0.34640001, 0.20000001
33, 0.22320000, 0.15895000
34, 0.22320000, 0.20000001
35, 0.10570000, 0.00000000
36, 0.34640001, 0.00000000
37, 0.03992000, 0.04105000
38, 0.02994000, 0.04105000
39, 0.01996000, 0.04105000
40, 0.00998000, 0.04105000
41, 0.00000000, 0.03078750
42, 0.00000000, 0.02052500
43, 0.00000000, 0.01026250
44, 0.00998000, 0.00000000
45, 0.01996000, 0.00000000
46, 0.02994000, 0.00000000
47, 0.03992000, 0.00000000
48, 0.04990000, 0.01026250
49, 0.04990000, 0.02052500
50, 0.04990000, 0.03078750
51, 0.09640000, 0.05895000
52, 0.08710000, 0.05895000
53, 0.07780000, 0.05895000
54, 0.06850000, 0.05895000
55, 0.05920000, 0.05895000
56, 0.04990000, 0.05000000
57, 0.05920000, 0.04105000
58, 0.06850000, 0.04105000
59, 0.07780000, 0.04105000
60, 0.08710000, 0.04105000
61, 0.09640000, 0.04105000
62, 0.10570000, 0.05000000
63, 0.00998000, 0.05895000
64, 0.01996000, 0.05895000
65, 0.02994000, 0.05895000
66, 0.03992000, 0.05895000
67, 0.04990000, 0.06921250
68, 0.04990000, 0.07947500
69, 0.04990000, 0.08973750
70, 0.04990000, 0.10000001
71, 0.04990000, 0.11026250
72, 0.04990000, 0.12052500
73, 0.04990000, 0.13078750
74, 0.03992000, 0.14105000
75, 0.02994000, 0.14105000
76, 0.01996000, 0.14105000
77, 0.00998000, 0.14105000
78, 0.00000000, 0.13078750
79, 0.00000000, 0.12052500
80, 0.00000000, 0.11026250
81, 0.00000000, 0.10000001
82, 0.00000000, 0.08973750
83, 0.00000000, 0.07947500
84, 0.00000000, 0.06921250
85, 0.00998000, 0.15895000
86, 0.01996000, 0.15895000
87, 0.02994000, 0.15895000
88, 0.03992000, 0.15895000
89, 0.04990000, 0.16921250
90, 0.04990000, 0.17947500
91, 0.04990000, 0.18973750
92, 0.03992000, 0.20000001
93, 0.02994000, 0.20000001
94, 0.01996000, 0.20000001
95, 0.00998000, 0.20000001
96, 0.00000000, 0.18973750
97, 0.00000000, 0.17947500
98, 0.00000000, 0.16921250
99, 0.28862858, 0.04105000
100, 0.29825715, 0.04105000
101, 0.30788572, 0.04105000
102, 0.31751429, 0.04105000
103, 0.32714286, 0.04105000
104, 0.33677144, 0.04105000
105, 0.34640001, 0.05000000
106, 0.33677144, 0.05895000
107, 0.32714286, 0.05895000
108, 0.31751429, 0.05895000
109, 0.30788572, 0.05895000
110, 0.29825715, 0.05895000
111, 0.28862858, 0.05895000
112, 0.27900001, 0.05000000
113, 0.22320000, 0.03078750
114, 0.22320000, 0.02052500
115, 0.22320000, 0.01026250
116, 0.23250000, 0.00000000
117, 0.24180000, 0.00000000
118, 0.25110000, 0.00000000
119, 0.26040000, 0.00000000
120, 0.26970001, 0.00000000
121, 0.27900001, 0.01026250
122, 0.27900001, 0.02052500
123, 0.27900001, 0.03078750
124, 0.26970001, 0.04105000
125, 0.26040000, 0.04105000
126, 0.25110000, 0.04105000
127, 0.24180000, 0.04105000
128, 0.23250000, 0.04105000
129, 0.21340833, 0.05895000
130, 0.20361666, 0.05895000
131, 0.19382500, 0.05895000
132, 0.18403333, 0.05895000
133, 0.17424166, 0.05895000
134, 0.16444999, 0.05895000
135, 0.15465834, 0.05895000
136, 0.14486667, 0.05895000
137, 0.13507500, 0.05895000
138, 0.12528333, 0.05895000
139, 0.11549167, 0.05895000
140, 0.11549167, 0.04105000
141, 0.12528333, 0.04105000
142, 0.13507500, 0.04105000
143, 0.14486667, 0.04105000
144, 0.15465834, 0.04105000
145, 0.16444999, 0.04105000
146, 0.17424166, 0.04105000
147, 0.18403333, 0.04105000
148, 0.19382500, 0.04105000
149, 0.20361666, 0.04105000
150, 0.21340833, 0.04105000
151, 0.22320000, 0.05000000
152, 0.09640000, 0.14105000
153, 0.08710000, 0.14105000
154, 0.07780000, 0.14105000
155, 0.06850000, 0.14105000
156, 0.05920000, 0.14105000
157, 0.10570000, 0.06921250
158, 0.10570000, 0.07947500
159, 0.10570000, 0.08973750
160, 0.10570000, 0.10000001
161, 0.10570000, 0.11026250
162, 0.10570000, 0.12052500
163, 0.10570000, 0.13078750
164, 0.04990000, 0.15000000
165, 0.00000000, 0.15000000
166, 0.05920000, 0.15895000
167, 0.06850000, 0.15895000
168, 0.07780000, 0.15895000
169, 0.08710000, 0.15895000
170, 0.09640000, 0.15895000
171, 0.10570000, 0.16921250
172, 0.10570000, 0.17947500
173, 0.10570000, 0.18973750
174, 0.09640000, 0.20000001
175, 0.08710000, 0.20000001
176, 0.07780000, 0.20000001
177, 0.06850000, 0.20000001
178, 0.05920000, 0.20000001
179, 0.34640001, 0.06921250
180, 0.34640001, 0.07947500
181, 0.34640001, 0.08973750
182, 0.34640001, 0.10000001
183, 0.34640001, 0.11026250
184, 0.34640001, 0.12052500
185, 0.34640001, 0.13078750
186, 0.33677144, 0.14105000
187, 0.32714286, 0.14105000
188, 0.31751429, 0.14105000
189, 0.30788572, 0.14105000
190, 0.29825715, 0.14105000
191, 0.28862858, 0.14105000
192, 0.27900001, 0.13078750
193, 0.27900001, 0.12052500
194, 0.27900001, 0.11026250
195, 0.27900001, 0.10000001
196, 0.27900001, 0.08973750
197, 0.27900001, 0.07947500
198, 0.27900001, 0.06921250
199, 0.26970001, 0.05895000
200, 0.26040000, 0.05895000
201, 0.25110000, 0.05895000
202, 0.24180000, 0.05895000
203, 0.23250000, 0.05895000
204, 0.21340833, 0.14105000
205, 0.20361666, 0.14105000
206, 0.19382500, 0.14105000
207, 0.18403333, 0.14105000
208, 0.17424166, 0.14105000
209, 0.16444999, 0.14105000
210, 0.15465834, 0.14105000
211, 0.14486667, 0.14105000
212, 0.13507500, 0.14105000
213, 0.12528333, 0.14105000
214, 0.11549167, 0.14105000
215, 0.22320000, 0.06921250
216, 0.22320000, 0.07947500
217, 0.22320000, 0.08973750
218, 0.22320000, 0.10000001
219, 0.22320000, 0.11026250
220, 0.22320000, 0.12052500
221, 0.22320000, 0.13078750
222, 0.10570000, 0.15000000
223, 0.27900001, 0.18973750
224, 0.27900001, 0.17947500
225, 0.27900001, 0.16921250
226, 0.28862858, 0.15895000
227, 0.29825715, 0.15895000
228, 0.30788572, 0.15895000
229, 0.31751429, 0.15895000
230, 0.32714286, 0.15895000
231, 0.33677144, 0.15895000
232, 0.34640001, 0.16921250
233, 0.34640001, 0.17947500
234, 0.34640001, 0.18973750
235, 0.33677144, 0.20000001
236, 0.32714286, 0.20000001
237, 0.31751429, 0.20000001
238, 0.30788572, 0.20000001
239, 0.29825715, 0.20000001
240, 0.28862858, 0.20000001
241, 0.11549167, 0.15895000
242, 0.12528333, 0.15895000
243, 0.13507500, 0.15895000
244, 0.14486667, 0.15895000
245, 0.15465834, 0.15895000
246, 0.16444999, 0.15895000
247, 0.17424166, 0.15895000
248, 0.18403333, 0.15895000
249, 0.19382500, 0.15895000
250, 0.20361666, 0.15895000
251, 0.21340833, 0.15895000
252, 0.22320000, 0.16921250
253, 0.22320000, 0.17947500
254, 0.22320000, 0.18973750
255, 0.21340833, 0.20000001
256, 0.20361666, 0.20000001
257, 0.19382500, 0.20000001
258, 0.18403333, 0.20000001
259, 0.17424166, 0.20000001
260, 0.16444999, 0.20000001
261, 0.15465834, 0.20000001
262, 0.14486667, 0.20000001
263, 0.13507500, 0.20000001
264, 0.12528333, 0.20000001
265, 0.11549167, 0.20000001
266, 0.34640001, 0.15000000
267, 0.27900001, 0.15000000
268, 0.26970001, 0.14105000
269, 0.26040000, 0.14105000
270, 0.25110000, 0.14105000
271, 0.24180000, 0.14105000
272, 0.23250000, 0.14105000
273, 0.22320000, 0.15000000
274, 0.23250000, 0.15895000
275, 0.24180000, 0.15895000
276, 0.25110000, 0.15895000
277, 0.26040000, 0.15895000
278, 0.26970001, 0.15895000
279, 0.26970001, 0.20000001
280, 0.26040000, 0.20000001
281, 0.25110000, 0.20000001
282, 0.24180000, 0.20000001
283, 0.23250000, 0.20000001
284, 0.05920000, 0.00000000
285, 0.06850000, 0.00000000
286, 0.07780000, 0.00000000
287, 0.08710001, 0.00000000
288, 0.09640001, 0.00000000
289, 0.10570000, 0.01026250
290, 0.10570000, 0.02052500
291, 0.10570000, 0.03078750
292, 0.00000000, 0.05000000
293, 0.28862858, 0.00000000
294, 0.29825715, 0.00000000
295, 0.30788572, 0.00000000
296, 0.31751429, 0.00000000
297, 0.32714286, 0.00000000
298, 0.33677144, 0.00000000
299, 0.34640001, 0.01026250
300, 0.34640001, 0.02052500
301, 0.34640001, 0.03078750
302, 0.11549167, 0.00000000
303, 0.12528334, 0.00000000
304, 0.13507501, 0.00000000
305, 0.14486667, 0.00000000
306, 0.15465832, 0.00000000
307, 0.16444999, 0.00000000
308, 0.17424166, 0.00000000
309, 0.18403333, 0.00000000
310, 0.19382499, 0.00000000
311, 0.20361666, 0.00000000
312, 0.21340835, 0.00000000
313, 0.03992000, 0.03078750
314, 0.02994000, 0.03078750
315, 0.01996000, 0.03078750
316, 0.00998000, 0.03078750
317, 0.03992000, 0.02052500
318, 0.02994000, 0.02052500
319, 0.01996000, 0.02052500
320, 0.00998000, 0.02052500
321, 0.03992000, 0.01026250
322, 0.02994000, 0.01026250
323, 0.01996000, 0.01026250
324, 0.00998000, 0.01026250
325, 0.09640000, 0.05000000
326, 0.08710000, 0.05000000
327, 0.07780000, 0.05000000
328, 0.06850000, 0.05000000
329, 0.05920000, 0.05000000
330, 0.00998000, 0.06921250
331, 0.01996000, 0.06921250
332, 0.02994000, 0.06921250
333, 0.03992000, 0.06921250
334, 0.00998000, 0.07947500
335, 0.01996000, 0.07947500
336, 0.02994000, 0.07947500
337, 0.03992000, 0.07947500
338, 0.00998000, 0.08973750
339, 0.01996000, 0.08973750
340, 0.02994000, 0.08973750
341, 0.03992000, 0.08973750
342, 0.00998000, 0.10000001
343, 0.01996000, 0.10000001
344, 0.02994000, 0.10000001
345, 0.03992000, 0.10000001
346, 0.00998000, 0.11026250
347, 0.01996000, 0.11026250
348, 0.02994000, 0.11026250
349, 0.03992000, 0.11026250
350, 0.00998000, 0.12052500
351, 0.01996000, 0.12052500
352, 0.02994000, 0.12052500
353, 0.03992000, 0.12052500
354, 0.00998000, 0.13078750
355, 0.01996000, 0.13078750
356, 0.02994000, 0.13078750
357, 0.03992000, 0.13078750
358, 0.00998000, 0.16921250
359, 0.01996000, 0.16921250
360, 0.02994000, 0.16921250
361, 0.03992000, 0.16921250
362, 0.00998000, 0.17947500
363, 0.01996000, 0.17947500
364, 0.02994000, 0.17947500
365, 0.03992000, 0.17947500
366, 0.00998000, 0.18973750
367, 0.01996000, 0.18973750
368, 0.02994000, 0.18973750
369, 0.03992000, 0.18973750
370, 0.28862858, 0.05000000
371, 0.29825715, 0.05000000
372, 0.30788572, 0.05000000
373, 0.31751429, 0.05000000
374, 0.32714286, 0.05000000
375, 0.33677144, 0.05000000
376, 0.23250000, 0.03078750
377, 0.23250000, 0.02052500
378, 0.23250000, 0.01026250
379, 0.24180000, 0.03078750
380, 0.24180000, 0.02052500
381, 0.24180000, 0.01026250
382, 0.25110000, 0.03078750
383, 0.25110000, 0.02052500
384, 0.25110000, 0.01026250
385, 0.26040000, 0.03078750
386, 0.26040000, 0.02052500
387, 0.26040000, 0.01026250
388, 0.26970001, 0.03078750
389, 0.26970001, 0.02052500
390, 0.26970001, 0.01026250
391, 0.21340833, 0.05000000
392, 0.20361666, 0.05000000
393, 0.19382500, 0.05000000
394, 0.18403333, 0.05000000
395, 0.17424166, 0.05000000
396, 0.16444999, 0.05000000
397, 0.15465834, 0.05000000
398, 0.14486667, 0.05000000
399, 0.13507500, 0.05000000
400, 0.12528333, 0.05000000
401, 0.11549167, 0.05000000
402, 0.09640000, 0.13078750
403, 0.08710000, 0.13078750
404, 0.07780000, 0.13078750
405, 0.06850000, 0.13078750
406, 0.05920000, 0.13078750
407, 0.09640000, 0.12052500
408, 0.08710000, 0.12052500
409, 0.07780000, 0.12052500
410, 0.06850000, 0.12052500
411, 0.05920000, 0.12052500
412, 0.09640000, 0.11026250
413, 0.08710000, 0.11026250
414, 0.07780000, 0.11026250
415, 0.06850000, 0.11026250
416, 0.05920000, 0.11026250
417, 0.09640000, 0.10000001
418, 0.08710000, 0.10000001
419, 0.07780000, 0.10000001
420, 0.06850000, 0.10000001
421, 0.05920000, 0.10000001
422, 0.09640000, 0.08973750
423, 0.08710000, 0.08973750
424, 0.07780000, 0.08973750
425, 0.06850000, 0.08973750
426, 0.05920000, 0.08973750
427, 0.09640000, 0.07947500
428, 0.08710000, 0.07947500
429, 0.07780000, 0.07947500
430, 0.06850000, 0.07947500
431, 0.05920000, 0.07947500
432, 0.09640000, 0.06921250
433, 0.08710000, 0.06921250
434, 0.07780000, 0.06921250
435, 0.06850000, 0.06921250
436, 0.05920000, 0.06921250
437, 0.00998000, 0.15000000
438, 0.01996000, 0.15000000
439, 0.02994000, 0.15000000
440, 0.03992000, 0.15000000
441, 0.05920000, 0.18973750
442, 0.05920000, 0.17947500
443, 0.05920000, 0.16921250
444, 0.06850000, 0.18973750
445, 0.06850000, 0.17947500
446, 0.06850000, 0.16921250
447, 0.07780000, 0.18973750
448, 0.07780000, 0.17947500
449, 0.07780000, 0.16921250
450, 0.08710000, 0.18973750
451, 0.08710000, 0.17947500
452, 0.08710000, 0.16921250
453, 0.09640000, 0.18973750
454, 0.09640000, 0.17947500
455, 0.09640000, 0.16921250
456, 0.28862858, 0.06921250
457, 0.29825715, 0.06921250
458, 0.30788572, 0.06921250
459, 0.31751429, 0.06921250
460, 0.32714286, 0.06921250
461, 0.33677144, 0.06921250
462, 0.28862858, 0.07947500
463, 0.29825715, 0.07947500
464, 0.30788572, 0.07947500
465, 0.31751429, 0.07947500
466, 0.32714286, 0.07947500
467, 0.33677144, 0.07947500
468, 0.28862858, 0.08973750
469, 0.29825715, 0.08973750
470, 0.30788572, 0.08973750
471, 0.31751429, 0.08973750
472, 0.32714286, 0.08973750
473, 0.33677144, 0.08973750
474, 0.28862858, 0.10000001
475, 0.29825715, 0.10000001
476, 0.30788572, 0.10000001
477, 0.31751429, 0.10000001
478, 0.32714286, 0.10000001
479, 0.33677144, 0.10000001
480, 0.28862858, 0.11026250
481, 0.29825715, 0.11026250
482, 0.30788572, 0.11026250
483, 0.31751429, 0.11026250
484, 0.32714286, 0.11026250
485, 0.33677144, 0.11026250
486, 0.28862858, 0.12052500
487, 0.29825715, 0.12052500
488, 0.30788572, 0.12052500
489, 0.31751429, 0.12052500
490, 0.32714286, 0.12052500
491, 0.33677144, 0.12052500
492, 0.28862858, 0.13078750
493, 0.29825715, 0.13078750
494, 0.30788572, 0.13078750
495, 0.31751429, 0.13078750
496, 0.32714286, 0.13078750
497, 0.33677144, 0.13078750
498, 0.23250000, 0.05000000
499, 0.24180000, 0.05000000
500, 0.25110000, 0.05000000
501, 0.26040000, 0.05000000
502, 0.26970001, 0.05000000
503, 0.21340833, 0.13078750
504, 0.20361666, 0.13078750
505, 0.19382500, 0.13078750
506, 0.18403333, 0.13078750
507, 0.17424166, 0.13078750
508, 0.16444999, 0.13078750
509, 0.15465834, 0.13078750
510, 0.14486667, 0.13078750
511, 0.13507500, 0.13078750
512, 0.12528333, 0.13078750
513, 0.11549167, 0.13078750
514, 0.21340833, 0.12052500
515, 0.20361666, 0.12052500
516, 0.19382500, 0.12052500
517, 0.18403333, 0.12052500
518, 0.17424166, 0.12052500
519, 0.16444999, 0.12052500
520, 0.15465834, 0.12052500
521, 0.14486667, 0.12052500
522, 0.13507500, 0.12052500
523, 0.12528333, 0.12052500
524, 0.11549167, 0.12052500
525, 0.21340833, 0.11026250
526, 0.20361666, 0.11026250
527, 0.19382500, 0.11026250
528, 0.18403333, 0.11026250
529, 0.17424166, 0.11026250
530, 0.16444999, 0.11026250
531, 0.15465834, 0.11026250
532, 0.14486667, 0.11026250
533, 0.13507500, 0.11026250
534, 0.12528333, 0.11026250
535, 0.11549167, 0.11026250
536, 0.21340833, 0.10000001
537, 0.20361666, 0.10000001
538, 0.19382500, 0.10000001
539, 0.18403333, 0.10000001
540, 0.17424166, 0.10000001
541, 0.16444999, 0.10000001
542, 0.15465834, 0.10000001
543, 0.14486667, 0.10000001
544, 0.13507500, 0.10000001
545, 0.12528333, 0.10000001
546, 0.11549167, 0.10000001
547, 0.21340833, 0.08973750
548, 0.20361666, 0.08973750
549, 0.19382500, 0.08973750
550, 0.18403333, 0.08973750
551, 0.17424166, 0.08973750
552, 0.16444999, 0.08973750
553, 0.15465834, 0.08973750
554, 0.14486667, 0.08973750
555, 0.13507500, 0.08973750
556, 0.12528333, 0.08973750
557, 0.11549167, 0.08973750
558, 0.21340833, 0.07947500
559, 0.20361666, 0.07947500
560, 0.19382500, 0.07947500
561, 0.18403333, 0.07947500
562, 0.17424166, 0.07947500
563, 0.16444999, 0.07947500
564, 0.15465834, 0.07947500
565, 0.14486667, 0.07947500
566, 0.13507500, 0.07947500
567, 0.12528333, 0.07947500
568, 0.11549167, 0.07947500
569, 0.21340833, 0.06921250
570, 0.20361666, 0.06921250
571, 0.19382500, 0.06921250
572, 0.18403333, 0.06921250
573, 0.17424166, 0.06921250
574, 0.16444999, 0.06921250
575, 0.15465834, 0.06921250
576, 0.14486667, 0.06921250
577, 0.13507500, 0.06921250
578, 0.12528333, 0.06921250
579, 0.11549167, 0.06921250
580, 0.09640000, 0.15000000
581, 0.08710000, 0.15000000
582, 0.07780000, 0.15000000
583, 0.06850000, 0.15000000
584, 0.05920000, 0.15000000
585, 0.28862858, 0.18973750
586, 0.28862858, 0.17947500
587, 0.28862858, 0.16921250
588, 0.29825715, 0.18973750
589, 0.29825715, 0.17947500
590, 0.29825715, 0.16921250
591, 0.30788572, 0.18973750
592, 0.30788572, 0.17947500
593, 0.30788572, 0.16921250
594, 0.31751429, 0.18973750
595, 0.31751429, 0.17947500
596, 0.31751429, 0.16921250
597, 0.32714286, 0.18973750
598, 0.32714286, 0.17947500
599, 0.32714286, 0.16921250
600, 0.33677144, 0.18973750
601, 0.33677144, 0.17947500
602, 0.33677144, 0.16921250
603, 0.11549167, 0.18973750
604, 0.11549167, 0.17947500
605, 0.11549167, 0.16921250
606, 0.12528333, 0.18973750
607, 0.12528333, 0.17947500
608, 0.12528333, 0.16921250
609, 0.13507500, 0.18973750
610, 0.13507500, 0.17947500
611, 0.13507500, 0.16921250
612, 0.14486667, 0.18973750
613, 0.14486667, 0.17947500
614, 0.14486667, 0.16921250
615, 0.15465834, 0.18973750
616, 0.15465834, 0.17947500
617, 0.15465834, 0.16921250
618, 0.16444999, 0.18973750
619, 0.16444999, 0.17947500
620, 0.16444999, 0.16921250
621, 0.17424166, 0.18973750
622, 0.17424166, 0.17947500
623, 0.17424166, 0.16921250
624, 0.18403333, 0.18973750
625, 0.18403333, 0.17947500
626, 0.18403333, 0.16921250
627, 0.19382500, 0.18973750
628, 0.19382500, 0.17947500
629, 0.19382500, 0.16921250
630, 0.20361666, 0.18973750
631, 0.20361666, 0.17947500
632, 0.20361666, 0.16921250
633, 0.21340833, 0.18973750
634, 0.21340833, 0.17947500
635, 0.21340833, 0.16921250
636, 0.28862858, 0.15000000
637, 0.29825715, 0.15000000
638, 0.30788572, 0.15000000
639, 0.31751429, 0.15000000
640, 0.32714286, 0.15000000
641, 0.33677144, 0.15000000
642, 0.23250000, 0.13078750
643, 0.23250000, 0.12052500
644, 0.23250000, 0.11026250
645, 0.23250000, 0.10000001
646, 0.23250000, 0.08973750
647, 0.23250000, 0.07947500
648, 0.23250000, 0.06921250
649, 0.24180000, 0.13078750
650, 0.24180000, 0.12052500
651, 0.24180000, 0.11026250
652, 0.24180000, 0.10000001
653, 0.24180000, 0.08973750
654, 0.24180000, 0.07947500
655, 0.24180000, 0.06921250
656, 0.25110000, 0.13078750
657, 0.25110000, 0.12052500
658, 0.25110000, 0.11026250
659, 0.25110000, 0.10000001
660, 0.25110000, 0.08973750
661, 0.25110000, 0.07947500
662, 0.25110000, 0.06921250
663, 0.26040000, 0.13078750
664, 0.26040000, 0.12052500
665, 0.26040000, 0.11026250
666, 0.26040000, 0.10000001
667, 0.26040000, 0.08973750
668, 0.26040000, 0.07947500
669, 0.26040000, 0.06921250
670, 0.26970001, 0.13078750
671, 0.26970001, 0.12052500
672, 0.26970001, 0.11026250
673, 0.26970001, 0.10000001
674, 0.26970001, 0.08973750
675, 0.26970001, 0.07947500
676, 0.26970001, 0.06921250
677, 0.21340833, 0.15000000
678, 0.20361666, 0.15000000
679, 0.19382500, 0.15000000
680, 0.18403333, 0.15000000
681, 0.17424166, 0.15000000
682, 0.16444999, 0.15000000
683, 0.15465834, 0.15000000
684, 0.14486667, 0.15000000
685, 0.13507500, 0.15000000
686, 0.12528333, 0.15000000
687, 0.11549167, 0.15000000
688, 0.23250000, 0.18973750
689, 0.23250000, 0.17947500
690, 0.23250000, 0.16921250
691, 0.24180000, 0.18973750
692, 0.24180000, 0.17947500
693, 0.24180000, 0.16921250
694, 0.25110000, 0.18973750
695, 0.25110000, 0.17947500
696, 0.25110000, 0.16921250
697, 0.26040000, 0.18973750
698, 0.26040000, 0.17947500
699, 0.26040000, 0.16921250
700, 0.26970001, 0.18973750
701, 0.26970001, 0.17947500
702, 0.26970001, 0.16921250
703, 0.26970001, 0.15000000
704, 0.26040000, 0.15000000
705, 0.25110000, 0.15000000
706, 0.24180000, 0.15000000
707, 0.23250000, 0.15000000
708, 0.05920000, 0.03078750
709, 0.05920000, 0.02052500
710, 0.05920000, 0.01026250
711, 0.06850000, 0.03078750
712, 0.06850000, 0.02052500
713, 0.06850000, 0.01026250
714, 0.07780000, 0.03078750
715, 0.07780000, 0.02052500
716, 0.07780000, 0.01026250
717, 0.08710000, 0.03078750
718, 0.08710000, 0.02052500
719, 0.08710000, 0.01026250
720, 0.09640000, 0.03078750
721, 0.09640000, 0.02052500
722, 0.09640000, 0.01026250
723, 0.00998000, 0.05000000
724, 0.01996000, 0.05000000
725, 0.02994000, 0.05000000
726, 0.03992000, 0.05000000
727, 0.28862858, 0.03078750
728, 0.28862858, 0.02052500
729, 0.28862858, 0.01026250
730, 0.29825715, 0.03078750
731, 0.29825715, 0.02052500
732, 0.29825715, 0.01026250
733, 0.30788572, 0.03078750
734, 0.30788572, 0.02052500
735, 0.30788572, 0.01026250
736, 0.31751429, 0.03078750
737, 0.31751429, 0.02052500
738, 0.31751429, 0.01026250
739, 0.32714286, 0.03078750
740, 0.32714286, 0.02052500
741, 0.32714286, 0.01026250
742, 0.33677144, 0.03078750
743, 0.33677144, 0.02052500
744, 0.33677144, 0.01026250
745, 0.11549167, 0.03078750
746, 0.11549167, 0.02052500
747, 0.11549167, 0.01026250
748, 0.12528333, 0.03078750
749, 0.12528333, 0.02052500
750, 0.12528333, 0.01026250
751, 0.13507500, 0.03078750
752, 0.13507500, 0.02052500
753, 0.13507500, 0.01026250
754, 0.14486667, 0.03078750
755, 0.14486667, 0.02052500
756, 0.14486667, 0.01026250
757, 0.15465834, 0.03078750
758, 0.15465834, 0.02052500
759, 0.15465834, 0.01026250
760, 0.16444999, 0.03078750
761, 0.16444999, 0.02052500
762, 0.16444999, 0.01026250
763, 0.17424166, 0.03078750
764, 0.17424166, 0.02052500
765, 0.17424166, 0.01026250
766, 0.18403333, 0.03078750
767, 0.18403333, 0.02052500
768, 0.18403333, 0.01026250
769, 0.19382499, 0.03078750
770, 0.19382499, 0.02052500
771, 0.19382499, 0.01026250
772, 0.20361664, 0.03078750
773, 0.20361664, 0.02052500
774, 0.20361664, 0.01026250
775, 0.21340833, 0.03078750
776, 0.21340833, 0.02052500
777, 0.21340833, 0.01026250
*Element, type=CPS4R
 1,   1,  37, 313,  50
 2,  37,  38, 314, 313
 3,  38,  39, 315, 314
 4,  39,  40, 316, 315
 5,  40,   2,  41, 316
 6,  50, 313, 317,  49
 7, 313, 314, 318, 317
 8, 314, 315, 319, 318
 9, 315, 316, 320, 319
10, 316,  41,  42, 320
11,  49, 317, 321,  48
12, 317, 318, 322, 321
13, 318, 319, 323, 322
14, 319, 320, 324, 323
15, 320,  42,  43, 324
16,  48, 321,  47,   4
17, 321, 322,  46,  47
18, 322, 323,  45,  46
19, 323, 324,  44,  45
20, 324,  43,   3,  44
21,   5,  51, 325,  62
22,  51,  52, 326, 325
23,  52,  53, 327, 326
24,  53,  54, 328, 327
25,  54,  55, 329, 328
26,  55,   6,  56, 329
27,  62, 325,  61,   7
28, 325, 326,  60,  61
29, 326, 327,  59,  60
30, 327, 328,  58,  59
31, 328, 329,  57,  58
32, 329,  56,   1,  57
33,   8,  63, 330,  84
34,  63,  64, 331, 330
35,  64,  65, 332, 331
36,  65,  66, 333, 332
37,  66,   6,  67, 333
38,  84, 330, 334,  83
39, 330, 331, 335, 334
40, 331, 332, 336, 335
41, 332, 333, 337, 336
42, 333,  67,  68, 337
43,  83, 334, 338,  82
44, 334, 335, 339, 338
45, 335, 336, 340, 339
46, 336, 337, 341, 340
47, 337,  68,  69, 341
48,  82, 338, 342,  81
49, 338, 339, 343, 342
50, 339, 340, 344, 343
51, 340, 341, 345, 344
52, 341,  69,  70, 345
53,  81, 342, 346,  80
54, 342, 343, 347, 346
55, 343, 344, 348, 347
56, 344, 345, 349, 348
57, 345,  70,  71, 349
58,  80, 346, 350,  79
59, 346, 347, 351, 350
60, 347, 348, 352, 351
61, 348, 349, 353, 352
62, 349,  71,  72, 353
63,  79, 350, 354,  78
64, 350, 351, 355, 354
65, 351, 352, 356, 355
66, 352, 353, 357, 356
67, 353,  72,  73, 357
68,  78, 354,  77,  10
69, 354, 355,  76,  77
70, 355, 356,  75,  76
71, 356, 357,  74,  75
72, 357,  73,   9,  74
73,  11,  85, 358,  98
74,  85,  86, 359, 358
75,  86,  87, 360, 359
76,  87,  88, 361, 360
77,  88,  12,  89, 361
78,  98, 358, 362,  97
79, 358, 359, 363, 362
80, 359, 360, 364, 363
81, 360, 361, 365, 364
82, 361,  89,  90, 365
83,  97, 362, 366,  96
84, 362, 363, 367, 366
85, 363, 364, 368, 367
86, 364, 365, 369, 368
87, 365,  90,  91, 369
88,  96, 366,  95,  14
89, 366, 367,  94,  95
90, 367, 368,  93,  94
91, 368, 369,  92,  93
92, 369,  91,  13,  92
 93,  15,  99, 370, 112
 94,  99, 100, 371, 370
 95, 100, 101, 372, 371
 96, 101, 102, 373, 372
 97, 102, 103, 374, 373
 98, 103, 104, 375, 374
 99, 104,  16, 105, 375
100, 112, 370, 111,  18
101, 370, 371, 110, 111
102, 371, 372, 109, 110
103, 372, 373, 108, 109
104, 373, 374, 107, 108
105, 374, 375, 106, 107
106, 375, 105,  17, 106
107,  19, 113, 376, 128
108, 113, 114, 377, 376
109, 114, 115, 378, 377
110, 115,  20, 116, 378
111, 128, 376, 379, 127
112, 376, 377, 380, 379
113, 377, 378, 381, 380
114, 378, 116, 117, 381
115, 127, 379, 382, 126
116, 379, 380, 383, 382
117, 380, 381, 384, 383
118, 381, 117, 118, 384
119, 126, 382, 385, 125
120, 382, 383, 386, 385
121, 383, 384, 387, 386
122, 384, 118, 119, 387
123, 125, 385, 388, 124
124, 385, 386, 389, 388
125, 386, 387, 390, 389
126, 387, 119, 120, 390
127, 124, 388, 123,  15
128, 388, 389, 122, 123
129, 389, 390, 121, 122
130, 390, 120,  21, 121
131,  22, 129, 391, 151
132, 129, 130, 392, 391
133, 130, 131, 393, 392
134, 131, 132, 394, 393
135, 132, 133, 395, 394
136, 133, 134, 396, 395
137, 134, 135, 397, 396
138, 135, 136, 398, 397
139, 136, 137, 399, 398
140, 137, 138, 400, 399
141, 138, 139, 401, 400
142, 139,   5,  62, 401
143, 151, 391, 150,  19
144, 391, 392, 149, 150
145, 392, 393, 148, 149
146, 393, 394, 147, 148
147, 394, 395, 146, 147
148, 395, 396, 145, 146
149, 396, 397, 144, 145
150, 397, 398, 143, 144
151, 398, 399, 142, 143
152, 399, 400, 141, 142
153, 400, 401, 140, 141
154, 401,  62,   7, 140
155,  23, 152, 402, 163
156, 152, 153, 403, 402
157, 153, 154, 404, 403
158, 154, 155, 405, 404
159, 155, 156, 406, 405
160, 156,   9,  73, 406
161, 163, 402, 407, 162
162, 402, 403, 408, 407
163, 403, 404, 409, 408
164, 404, 405, 410, 409
165, 405, 406, 411, 410
166, 406,  73,  72, 411
167, 162, 407, 412, 161
168, 407, 408, 413, 412
169, 408, 409, 414, 413
170, 409, 410, 415, 414
171, 410, 411, 416, 415
172, 411,  72,  71, 416
173, 161, 412, 417, 160
174, 412, 413, 418, 417
175, 413, 414, 419, 418
176, 414, 415, 420, 419
177, 415, 416, 421, 420
178, 416,  71,  70, 421
179, 160, 417, 422, 159
180, 417, 418, 423, 422
181, 418, 419, 424, 423
182, 419, 420, 425, 424
183, 420, 421, 426, 425
184, 421,  70,  69, 426
185, 159, 422, 427, 158
186, 422, 423, 428, 427
187, 423, 424, 429, 428
188, 424, 425, 430, 429
189, 425, 426, 431, 430
190, 426,  69,  68, 431
191, 158, 427, 432, 157
192, 427, 428, 433, 432
193, 428, 429, 434, 433
194, 429, 430, 435, 434
195, 430, 431, 436, 435
196, 431,  68,  67, 436
197, 157, 432,  51,   5
198, 432, 433,  52,  51
199, 433, 434,  53,  52
200, 434, 435,  54,  53
201, 435, 436,  55,  54
202, 436,  67,   6,  55
203,  10,  77, 437, 165
204,  77,  76, 438, 437
205,  76,  75, 439, 438
206,  75,  74, 440, 439
207,  74,   9, 164, 440
208, 165, 437,  85,  11
209, 437, 438,  86,  85
210, 438, 439,  87,  86
211, 439, 440,  88,  87
212, 440, 164,  12,  88
213,  13,  91, 441, 178
214,  91,  90, 442, 441
215,  90,  89, 443, 442
216,  89,  12, 166, 443
217, 178, 441, 444, 177
218, 441, 442, 445, 444
219, 442, 443, 446, 445
220, 443, 166, 167, 446
221, 177, 444, 447, 176
222, 444, 445, 448, 447
223, 445, 446, 449, 448
224, 446, 167, 168, 449
225, 176, 447, 450, 175
226, 447, 448, 451, 450
227, 448, 449, 452, 451
228, 449, 168, 169, 452
229, 175, 450, 453, 174
230, 450, 451, 454, 453
231, 451, 452, 455, 454
232, 452, 169, 170, 455
233, 174, 453, 173,  25
234, 453, 454, 172, 173
235, 454, 455, 171, 172
236, 455, 170,  24, 171
237,  18, 111, 456, 198
238, 111, 110, 457, 456
239, 110, 109, 458, 457
240, 109, 108, 459, 458
241, 108, 107, 460, 459
242, 107, 106, 461, 460
243, 106,  17, 179, 461
244, 198, 456, 462, 197
245, 456, 457, 463, 462
246, 457, 458, 464, 463
247, 458, 459, 465, 464
248, 459, 460, 466, 465
249, 460, 461, 467, 466
250, 461, 179, 180, 467
251, 197, 462, 468, 196
252, 462, 463, 469, 468
253, 463, 464, 470, 469
254, 464, 465, 471, 470
255, 465, 466, 472, 471
256, 466, 467, 473, 472
257, 467, 180, 181, 473
258, 196, 468, 474, 195
259, 468, 469, 475, 474
260, 469, 470, 476, 475
261, 470, 471, 477, 476
262, 471, 472, 478, 477
263, 472, 473, 479, 478
264, 473, 181, 182, 479
265, 195, 474, 480, 194
266, 474, 475, 481, 480
267, 475, 476, 482, 481
268, 476, 477, 483, 482
269, 477, 478, 484, 483
270, 478, 479, 485, 484
271, 479, 182, 183, 485
272, 194, 480, 486, 193
273, 480, 481, 487, 486
274, 481, 482, 488, 487
275, 482, 483, 489, 488
276, 483, 484, 490, 489
277, 484, 485, 491, 490
278, 485, 183, 184, 491
279, 193, 486, 492, 192
280, 486, 487, 493, 492
281, 487, 488, 494, 493
282, 488, 489, 495, 494
283, 489, 490, 496, 495
284, 490, 491, 497, 496
285, 491, 184, 185, 497
286, 192, 492, 191,  27
287, 492, 493, 190, 191
288, 493, 494, 189, 190
289, 494, 495, 188, 189
290, 495, 496, 187, 188
291, 496, 497, 186, 187
292, 497, 185,  26, 186
293,  22, 151, 498, 203
294, 151,  19, 128, 498
295, 203, 498, 499, 202
296, 498, 128, 127, 499
297, 202, 499, 500, 201
298, 499, 127, 126, 500
299, 201, 500, 501, 200
300, 500, 126, 125, 501
301, 200, 501, 502, 199
302, 501, 125, 124, 502
303, 199, 502, 112,  18
304, 502, 124,  15, 112
305,  28, 204, 503, 221
306, 204, 205, 504, 503
307, 205, 206, 505, 504
308, 206, 207, 506, 505
309, 207, 208, 507, 506
310, 208, 209, 508, 507
311, 209, 210, 509, 508
312, 210, 211, 510, 509
313, 211, 212, 511, 510
314, 212, 213, 512, 511
315, 213, 214, 513, 512
316, 214,  23, 163, 513
317, 221, 503, 514, 220
318, 503, 504, 515, 514
319, 504, 505, 516, 515
320, 505, 506, 517, 516
321, 506, 507, 518, 517
322, 507, 508, 519, 518
323, 508, 509, 520, 519
324, 509, 510, 521, 520
325, 510, 511, 522, 521
326, 511, 512, 523, 522
327, 512, 513, 524, 523
328, 513, 163, 162, 524
329, 220, 514, 525, 219
330, 514, 515, 526, 525
331, 515, 516, 527, 526
332, 516, 517, 528, 527
333, 517, 518, 529, 528
334, 518, 519, 530, 529
335, 519, 520, 531, 530
336, 520, 521, 532, 531
337, 521, 522, 533, 532
338, 522, 523, 534, 533
339, 523, 524, 535, 534
340, 524, 162, 161, 535
341, 219, 525, 536, 218
342, 525, 526, 537, 536
343, 526, 527, 538, 537
344, 527, 528, 539, 538
345, 528, 529, 540, 539
346, 529, 530, 541, 540
347, 530, 531, 542, 541
348, 531, 532, 543, 542
349, 532, 533, 544, 543
350, 533, 534, 545, 544
351, 534, 535, 546, 545
352, 535, 161, 160, 546
353, 218, 536, 547, 217
354, 536, 537, 548, 547
355, 537, 538, 549, 548
356, 538, 539, 550, 549
357, 539, 540, 551, 550
358, 540, 541, 552, 551
359, 541, 542, 553, 552
360, 542, 543, 554, 553
361, 543, 544, 555, 554
362, 544, 545, 556, 555
363, 545, 546, 557, 556
364, 546, 160, 159, 557
365, 217, 547, 558, 216
366, 547, 548, 559, 558
367, 548, 549, 560, 559
368, 549, 550, 561, 560
369, 550, 551, 562, 561
370, 551, 552, 563, 562
371, 552, 553, 564, 563
372, 553, 554, 565, 564
373, 554, 555, 566, 565
374, 555, 556, 567, 566
375, 556, 557, 568, 567
376, 557, 159, 158, 568
377, 216, 558, 569, 215
378, 558, 559, 570, 569
379, 559, 560, 571, 570
380, 560, 561, 572, 571
381, 561, 562, 573, 572
382, 562, 563, 574, 573
383, 563, 564, 575, 574
384, 564, 565, 576, 575
385, 565, 566, 577, 576
386, 566, 567, 578, 577
387, 567, 568, 579, 578
388, 568, 158, 157, 579
389, 215, 569, 129,  22
390, 569, 570, 130, 129
391, 570, 571, 131, 130
392, 571, 572, 132, 131
393, 572, 573, 133, 132
394, 573, 574, 134, 133
395, 574, 575, 135, 134
396, 575, 576, 136, 135
397, 576, 577, 137, 136
398, 577, 578, 138, 137
399, 578, 579, 139, 138
400, 579, 157,   5, 139
401,  24, 170, 580, 222
402, 170, 169, 581, 580
403, 169, 168, 582, 581
404, 168, 167, 583, 582
405, 167, 166, 584, 583
406, 166,  12, 164, 584
407, 222, 580, 152,  23
408, 580, 581, 153, 152
409, 581, 582, 154, 153
410, 582, 583, 155, 154
411, 583, 584, 156, 155
412, 584, 164,   9, 156
413,  29, 223, 585, 240
414, 223, 224, 586, 585
415, 224, 225, 587, 586
416, 225,  30, 226, 587
417, 240, 585, 588, 239
418, 585, 586, 589, 588
419, 586, 587, 590, 589
420, 587, 226, 227, 590
421, 239, 588, 591, 238
422, 588, 589, 592, 591
423, 589, 590, 593, 592
424, 590, 227, 228, 593
425, 238, 591, 594, 237
426, 591, 592, 595, 594
427, 592, 593, 596, 595
428, 593, 228, 229, 596
429, 237, 594, 597, 236
430, 594, 595, 598, 597
431, 595, 596, 599, 598
432, 596, 229, 230, 599
433, 236, 597, 600, 235
434, 597, 598, 601, 600
435, 598, 599, 602, 601
436, 599, 230, 231, 602
437, 235, 600, 234,  32
438, 600, 601, 233, 234
439, 601, 602, 232, 233
440, 602, 231,  31, 232
441,  25, 173, 603, 265
442, 173, 172, 604, 603
443, 172, 171, 605, 604
444, 171,  24, 241, 605
445, 265, 603, 606, 264
446, 603, 604, 607, 606
447, 604, 605, 608, 607
448, 605, 241, 242, 608
449, 264, 606, 609, 263
450, 606, 607, 610, 609
451, 607, 608, 611, 610
452, 608, 242, 243, 611
453, 263, 609, 612, 262
454, 609, 610, 613, 612
455, 610, 611, 614, 613
456, 611, 243, 244, 614
457, 262, 612, 615, 261
458, 612, 613, 616, 615
459, 613, 614, 617, 616
460, 614, 244, 245, 617
461, 261, 615, 618, 260
462, 615, 616, 619, 618
463, 616, 617, 620, 619
464, 617, 245, 246, 620
465, 260, 618, 621, 259
466, 618, 619, 622, 621
467, 619, 620, 623, 622
468, 620, 246, 247, 623
469, 259, 621, 624, 258
470, 621, 622, 625, 624
471, 622, 623, 626, 625
472, 623, 247, 248, 626
473, 258, 624, 627, 257
474, 624, 625, 628, 627
475, 625, 626, 629, 628
476, 626, 248, 249, 629
477, 257, 627, 630, 256
478, 627, 628, 631, 630
479, 628, 629, 632, 631
480, 629, 249, 250, 632
481, 256, 630, 633, 255
482, 630, 631, 634, 633
483, 631, 632, 635, 634
484, 632, 250, 251, 635
485, 255, 633, 254,  34
486, 633, 634, 253, 254
487, 634, 635, 252, 253
488, 635, 251,  33, 252
489,  27, 191, 636, 267
490, 191, 190, 637, 636
491, 190, 189, 638, 637
492, 189, 188, 639, 638
493, 188, 187, 640, 639
494, 187, 186, 641, 640
495, 186,  26, 266, 641
496, 267, 636, 226,  30
497, 636, 637, 227, 226
498, 637, 638, 228, 227
499, 638, 639, 229, 228
500, 639, 640, 230, 229
501, 640, 641, 231, 230
502, 641, 266,  31, 231
503,  28, 221, 642, 272
504, 221, 220, 643, 642
505, 220, 219, 644, 643
506, 219, 218, 645, 644
507, 218, 217, 646, 645
508, 217, 216, 647, 646
509, 216, 215, 648, 647
510, 215,  22, 203, 648
511, 272, 642, 649, 271
512, 642, 643, 650, 649
513, 643, 644, 651, 650
514, 644, 645, 652, 651
515, 645, 646, 653, 652
516, 646, 647, 654, 653
517, 647, 648, 655, 654
518, 648, 203, 202, 655
519, 271, 649, 656, 270
520, 649, 650, 657, 656
521, 650, 651, 658, 657
522, 651, 652, 659, 658
523, 652, 653, 660, 659
524, 653, 654, 661, 660
525, 654, 655, 662, 661
526, 655, 202, 201, 662
527, 270, 656, 663, 269
528, 656, 657, 664, 663
529, 657, 658, 665, 664
530, 658, 659, 666, 665
531, 659, 660, 667, 666
532, 660, 661, 668, 667
533, 661, 662, 669, 668
534, 662, 201, 200, 669
535, 269, 663, 670, 268
536, 663, 664, 671, 670
537, 664, 665, 672, 671
538, 665, 666, 673, 672
539, 666, 667, 674, 673
540, 667, 668, 675, 674
541, 668, 669, 676, 675
542, 669, 200, 199, 676
543, 268, 670, 192,  27
544, 670, 671, 193, 192
545, 671, 672, 194, 193
546, 672, 673, 195, 194
547, 673, 674, 196, 195
548, 674, 675, 197, 196
549, 675, 676, 198, 197
550, 676, 199,  18, 198
551,  33, 251, 677, 273
552, 251, 250, 678, 677
553, 250, 249, 679, 678
554, 249, 248, 680, 679
555, 248, 247, 681, 680
556, 247, 246, 682, 681
557, 246, 245, 683, 682
558, 245, 244, 684, 683
559, 244, 243, 685, 684
560, 243, 242, 686, 685
561, 242, 241, 687, 686
562, 241,  24, 222, 687
563, 273, 677, 204,  28
564, 677, 678, 205, 204
565, 678, 679, 206, 205
566, 679, 680, 207, 206
567, 680, 681, 208, 207
568, 681, 682, 209, 208
569, 682, 683, 210, 209
570, 683, 684, 211, 210
571, 684, 685, 212, 211
572, 685, 686, 213, 212
573, 686, 687, 214, 213
574, 687, 222,  23, 214
575,  34, 254, 688, 283
576, 254, 253, 689, 688
577, 253, 252, 690, 689
578, 252,  33, 274, 690
579, 283, 688, 691, 282
580, 688, 689, 692, 691
581, 689, 690, 693, 692
582, 690, 274, 275, 693
583, 282, 691, 694, 281
584, 691, 692, 695, 694
585, 692, 693, 696, 695
586, 693, 275, 276, 696
587, 281, 694, 697, 280
588, 694, 695, 698, 697
589, 695, 696, 699, 698
590, 696, 276, 277, 699
591, 280, 697, 700, 279
592, 697, 698, 701, 700
593, 698, 699, 702, 701
594, 699, 277, 278, 702
595, 279, 700, 223,  29
596, 700, 701, 224, 223
597, 701, 702, 225, 224
598, 702, 278,  30, 225
599,  30, 278, 703, 267
600, 278, 277, 704, 703
601, 277, 276, 705, 704
602, 276, 275, 706, 705
603, 275, 274, 707, 706
604, 274,  33, 273, 707
605, 267, 703, 268,  27
606, 703, 704, 269, 268
607, 704, 705, 270, 269
608, 705, 706, 271, 270
609, 706, 707, 272, 271
610, 707, 273,  28, 272
*Element, type=CPE4R
611,   1,  50, 708,  57
612,  50,  49, 709, 708
613,  49,  48, 710, 709
614,  48,   4, 284, 710
615,  57, 708, 711,  58
616, 708, 709, 712, 711
617, 709, 710, 713, 712
618, 710, 284, 285, 713
619,  58, 711, 714,  59
620, 711, 712, 715, 714
621, 712, 713, 716, 715
622, 713, 285, 286, 716
623,  59, 714, 717,  60
624, 714, 715, 718, 717
625, 715, 716, 719, 718
626, 716, 286, 287, 719
627,  60, 717, 720,  61
628, 717, 718, 721, 720
629, 718, 719, 722, 721
630, 719, 287, 288, 722
631,  61, 720, 291,   7
632, 720, 721, 290, 291
633, 721, 722, 289, 290
634, 722, 288,  35, 289
635,   2,  40, 723, 292
636,  40,  39, 724, 723
637,  39,  38, 725, 724
638,  38,  37, 726, 725
639,  37,   1,  56, 726
640, 292, 723,  63,   8
641, 723, 724,  64,  63
642, 724, 725,  65,  64
643, 725, 726,  66,  65
644, 726,  56,   6,  66
645,  15, 123, 727,  99
646, 123, 122, 728, 727
647, 122, 121, 729, 728
648, 121,  21, 293, 729
649,  99, 727, 730, 100
650, 727, 728, 731, 730
651, 728, 729, 732, 731
652, 729, 293, 294, 732
653, 100, 730, 733, 101
654, 730, 731, 734, 733
655, 731, 732, 735, 734
656, 732, 294, 295, 735
657, 101, 733, 736, 102
658, 733, 734, 737, 736
659, 734, 735, 738, 737
660, 735, 295, 296, 738
661, 102, 736, 739, 103
662, 736, 737, 740, 739
663, 737, 738, 741, 740
664, 738, 296, 297, 741
665, 103, 739, 742, 104
666, 739, 740, 743, 742
667, 740, 741, 744, 743
668, 741, 297, 298, 744
669, 104, 742, 301,  16
670, 742, 743, 300, 301
671, 743, 744, 299, 300
672, 744, 298,  36, 299
673,   7, 291, 745, 140
674, 291, 290, 746, 745
675, 290, 289, 747, 746
676, 289,  35, 302, 747
677, 140, 745, 748, 141
678, 745, 746, 749, 748
679, 746, 747, 750, 749
680, 747, 302, 303, 750
681, 141, 748, 751, 142
682, 748, 749, 752, 751
683, 749, 750, 753, 752
684, 750, 303, 304, 753
685, 142, 751, 754, 143
686, 751, 752, 755, 754
687, 752, 753, 756, 755
688, 753, 304, 305, 756
689, 143, 754, 757, 144
690, 754, 755, 758, 757
691, 755, 756, 759, 758
692, 756, 305, 306, 759
693, 144, 757, 760, 145
694, 757, 758, 761, 760
695, 758, 759, 762, 761
696, 759, 306, 307, 762
697, 145, 760, 763, 146
698, 760, 761, 764, 763
699, 761, 762, 765, 764
700, 762, 307, 308, 765
701, 146, 763, 766, 147
702, 763, 764, 767, 766
703, 764, 765, 768, 767
704, 765, 308, 309, 768
705, 147, 766, 769, 148
706, 766, 767, 770, 769
707, 767, 768, 771, 770
708, 768, 309, 310, 771
709, 148, 769, 772, 149
710, 769, 770, 773, 772
711, 770, 771, 774, 773
712, 771, 310, 311, 774
713, 149, 772, 775, 150
714, 772, 773, 776, 775
715, 773, 774, 777, 776
716, 774, 311, 312, 777
717, 150, 775, 113,  19
718, 775, 776, 114, 113
719, 776, 777, 115, 114
720, 777, 312,  20, 115
*Nset, nset=elasticity
   1,   4,   5,   6,   7,   9,  12,  13,  15,  18,  19,  22,  23,  24,  25,  27
  28,  30,  33,  35,  48,  49,  50,  51,  52,  53,  54,  55,  56,  57,  58,  59
  60,  61,  62,  89,  90,  91, 112, 124, 125, 126, 127, 128, 151, 152, 153, 154
 155, 156, 164, 166, 167, 168, 169, 170, 171, 172, 173, 174, 175, 176, 177, 178
 192, 193, 194, 195, 196, 197, 198, 199, 200, 201, 202, 203, 215, 216, 217, 218
 219, 220, 221, 222, 267, 268, 269, 270, 271, 272, 273, 274, 275, 276, 277, 278
 284, 285, 286, 287, 288, 289, 290, 291, 325, 326, 327, 328, 329, 441, 442, 443
 444, 445, 446, 447, 448, 449, 450, 451, 452, 453, 454, 455, 498, 499, 500, 501
 502, 580, 581, 582, 583, 584, 642, 643, 644, 645, 646, 647, 648, 649, 650, 651
 652, 653, 654, 655, 656, 657, 658, 659, 660, 661, 662, 663, 664, 665, 666, 667
 668, 669, 670, 671, 672, 673, 674, 675, 676, 703, 704, 705, 706, 707, 708, 709
 710, 711, 712, 713, 714, 715, 716, 717, 718, 719, 720, 721, 722
*Elset, elset=elasticity
  21,  22,  23,  24,  25,  26,  27,  28,  29,  30,  31,  32, 213, 214, 215, 216
 217, 218, 219, 220, 221, 222, 223, 224, 225, 226, 227, 228, 229, 230, 231, 232
 233, 234, 235, 236, 293, 294, 295, 296, 297, 298, 299, 300, 301, 302, 303, 304
 401, 402, 403, 404, 405, 406, 407, 408, 409, 410, 411, 412, 503, 504, 505, 506
 507, 508, 509, 510, 511, 512, 513, 514, 515, 516, 517, 518, 519, 520, 521, 522
 523, 524, 525, 526, 527, 528, 529, 530, 531, 532, 533, 534, 535, 536, 537, 538
 539, 540, 541, 542, 543, 544, 545, 546, 547, 548, 549, 550, 599, 600, 601, 602
 603, 604, 605, 606, 607, 608, 609, 610, 611, 612, 613, 614, 615, 616, 617, 618
 619, 620, 621, 622, 623, 624, 625, 626, 627, 628, 629, 630, 631, 632, 633, 634
*Nset, nset=plasticity
   1,   2,   3,   4,   5,   6,   7,   8,   9,  10,  11,  12,  13,  14,  15,  16
  17,  18,  19,  20,  21,  22,  23,  24,  25,  26,  27,  28,  29,  30,  31,  32
  33,  34,  35,  36,  37,  38,  39,  40,  41,  42,  43,  44,  45,  46,  47,  48
  49,  50,  51,  52,  53,  54,  55,  56,  62,  63,  64,  65,  66,  67,  68,  69
  70,  71,  72,  73,  74,  75,  76,  77,  78,  79,  80,  81,  82,  83,  84,  85
  86,  87,  88,  89,  90,  91,  92,  93,  94,  95,  96,  97,  98,  99, 100, 101
 102, 103, 104, 105, 106, 107, 108, 109, 110, 111, 112, 113, 114, 115, 116, 117
 118, 119, 120, 121, 122, 123, 124, 125, 126, 127, 128, 129, 130, 131, 132, 133
 134, 135, 136, 137, 138, 139, 140, 141, 142, 143, 144, 145, 146, 147, 148, 149
 150, 151, 152, 153, 154, 155, 156, 157, 158, 159, 160, 161, 162, 163, 164, 165
 171, 172, 173, 179, 180, 181, 182, 183, 184, 185, 186, 187, 188, 189, 190, 191
 192, 193, 194, 195, 196, 197, 198, 204, 205, 206, 207, 208, 209, 210, 211, 212
 213, 214, 215, 216, 217, 218, 219, 220, 221, 222, 223, 224, 225, 226, 227, 228
 229, 230, 231, 232, 233, 234, 235, 236, 237, 238, 239, 240, 241, 242, 243, 244
 245, 246, 247, 248, 249, 250, 251, 252, 253, 254, 255, 256, 257, 258, 259, 260
 261, 262, 263, 264, 265, 266, 267, 273, 274, 275, 276, 277, 278, 279, 280, 281
 282, 283, 289, 290, 291, 292, 293, 294, 295, 296, 297, 298, 299, 300, 301, 302
 303, 304, 305, 306, 307, 308, 309, 310, 311, 312, 313, 314, 315, 316, 317, 318
 319, 320, 321, 322, 323, 324, 330, 331, 332, 333, 334, 335, 336, 337, 338, 339
 340, 341, 342, 343, 344, 345, 346, 347, 348, 349, 350, 351, 352, 353, 354, 355
 356, 357, 358, 359, 360, 361, 362, 363, 364, 365, 366, 367, 368, 369, 370, 371
 372, 373, 374, 375, 376, 377, 378, 379, 380, 381, 382, 383, 384, 385, 386, 387
 388, 389, 390, 391, 392, 393, 394, 395, 396, 397, 398, 399, 400, 401, 402, 403
 404, 405, 406, 407, 408, 409, 410, 411, 412, 413, 414, 415, 416, 417, 418, 419
 420, 421, 422, 423, 424, 425, 426, 427, 428, 429, 430, 431, 432, 433, 434, 435
 436, 437, 438, 439, 440, 456, 457, 458, 459, 460, 461, 462, 463, 464, 465, 466
 467, 468, 469, 470, 471, 472, 473, 474, 475, 476, 477, 478, 479, 480, 481, 482
 483, 484, 485, 486, 487, 488, 489, 490, 491, 492, 493, 494, 495, 496, 497, 503
 504, 505, 506, 507, 508, 509, 510, 511, 512, 513, 514, 515, 516, 517, 518, 519
 520, 521, 522, 523, 524, 525, 526, 527, 528, 529, 530, 531, 532, 533, 534, 535
 536, 537, 538, 539, 540, 541, 542, 543, 544, 545, 546, 547, 548, 549, 550, 551
 552, 553, 554, 555, 556, 557, 558, 559, 560, 561, 562, 563, 564, 565, 566, 567
 568, 569, 570, 571, 572, 573, 574, 575, 576, 577, 578, 579, 585, 586, 587, 588
 589, 590, 591, 592, 593, 594, 595, 596, 597, 598, 599, 600, 601, 602, 603, 604
 605, 606, 607, 608, 609, 610, 611, 612, 613, 614, 615, 616, 617, 618, 619, 620
 621, 622, 623, 624, 625, 626, 627, 628, 629, 630, 631, 632, 633, 634, 635, 636
 637, 638, 639, 640, 641, 677, 678, 679, 680, 681, 682, 683, 684, 685, 686, 687
 688, 689, 690, 691, 692, 693, 694, 695, 696, 697, 698, 699, 700, 701, 702, 723
 724, 725, 726, 727, 728, 729, 730, 731, 732, 733, 734, 735, 736, 737, 738, 739
 740, 741, 742, 743, 744, 745, 746, 747, 748, 749, 750, 751, 752, 753, 754, 755
 756, 757, 758, 759, 760, 761, 762, 763, 764, 765, 766, 767, 768, 769, 770, 771
 772, 773, 774, 775, 776, 777
*Elset, elset=plasticity
   1,   2,   3,   4,   5,   6,   7,   8,   9,  10,  11,  12,  13,  14,  15,  16
  17,  18,  19,  20,  33,  34,  35,  36,  37,  38,  39,  40,  41,  42,  43,  44
  45,  46,  47,  48,  49,  50,  51,  52,  53,  54,  55,  56,  57,  58,  59,  60
  61,  62,  63,  64,  65,  66,  67,  68,  69,  70,  71,  72,  73,  74,  75,  76
  77,  78,  79,  80,  81,  82,  83,  84,  85,  86,  87,  88,  89,  90,  91,  92
  93,  94,  95,  96,  97,  98,  99, 100, 101, 102, 103, 104, 105, 106, 107, 108
 109, 110, 111, 112, 113, 114, 115, 116, 117, 118, 119, 120, 121, 122, 123, 124
 125, 126, 127, 128, 129, 130, 131, 132, 133, 134, 135, 136, 137, 138, 139, 140
 141, 142, 143, 144, 145, 146, 147, 148, 149, 150, 151, 152, 153, 154, 155, 156
 157, 158, 159, 160, 161, 162, 163, 164, 165, 166, 167, 168, 169, 170, 171, 172
 173, 174, 175, 176, 177, 178, 179, 180, 181, 182, 183, 184, 185, 186, 187, 188
 189, 190, 191, 192, 193, 194, 195, 196, 197, 198, 199, 200, 201, 202, 203, 204
 205, 206, 207, 208, 209, 210, 211, 212, 237, 238, 239, 240, 241, 242, 243, 244
 245, 246, 247, 248, 249, 250, 251, 252, 253, 254, 255, 256, 257, 258, 259, 260
 261, 262, 263, 264, 265, 266, 267, 268, 269, 270, 271, 272, 273, 274, 275, 276
 277, 278, 279, 280, 281, 282, 283, 284, 285, 286, 287, 288, 289, 290, 291, 292
 305, 306, 307, 308, 309, 310, 311, 312, 313, 314, 315, 316, 317, 318, 319, 320
 321, 322, 323, 324, 325, 326, 327, 328, 329, 330, 331, 332, 333, 334, 335, 336
 337, 338, 339, 340, 341, 342, 343, 344, 345, 346, 347, 348, 349, 350, 351, 352
 353, 354, 355, 356, 357, 358, 359, 360, 361, 362, 363, 364, 365, 366, 367, 368
 369, 370, 371, 372, 373, 374, 375, 376, 377, 378, 379, 380, 381, 382, 383, 384
 385, 386, 387, 388, 389, 390, 391, 392, 393, 394, 395, 396, 397, 398, 399, 400
 413, 414, 415, 416, 417, 418, 419, 420, 421, 422, 423, 424, 425, 426, 427, 428
 429, 430, 431, 432, 433, 434, 435, 436, 437, 438, 439, 440, 441, 442, 443, 444
 445, 446, 447, 448, 449, 450, 451, 452, 453, 454, 455, 456, 457, 458, 459, 460
 461, 462, 463, 464, 465, 466, 467, 468, 469, 470, 471, 472, 473, 474, 475, 476
 477, 478, 479, 480, 481, 482, 483, 484, 485, 486, 487, 488, 489, 490, 491, 492
 493, 494, 495, 496, 497, 498, 499, 500, 501, 502, 551, 552, 553, 554, 555, 556
 557, 558, 559, 560, 561, 562, 563, 564, 565, 566, 567, 568, 569, 570, 571, 572
 573, 574, 575, 576, 577, 578, 579, 580, 581, 582, 583, 584, 585, 586, 587, 588
 589, 590, 591, 592, 593, 594, 595, 596, 597, 598, 635, 636, 637, 638, 639, 640
 641, 642, 643, 644, 645, 646, 647, 648, 649, 650, 651, 652, 653, 654, 655, 656
 657, 658, 659, 660, 661, 662, 663, 664, 665, 666, 667, 668, 669, 670, 671, 672
 673, 674, 675, 676, 677, 678, 679, 680, 681, 682, 683, 684, 685, 686, 687, 688
 689, 690, 691, 692, 693, 694, 695, 696, 697, 698, 699, 700, 701, 702, 703, 704
 705, 706, 707, 708, 709, 710, 711, 712, 713, 714, 715, 716, 717, 718, 719, 720
*Nset, nset=bottom
   3,   4,  20,  21,  35,  36,  44,  45,  46,  47, 116, 117, 118, 119, 120, 284
 285, 286, 287, 288, 293, 294, 295, 296, 297, 298, 302, 303, 304, 305, 306, 307
 308, 309, 310, 311, 312
*Nset, nset=left
   2,   3,   8,  10,  11,  14,  41,  42,  43,  78,  79,  80,  81,  82,  83,  84
  96,  97,  98, 165, 292
*Nset, nset=right
  16,  17,  26,  31,  32,  36, 105, 179, 180, 181, 182, 183, 184, 185, 232, 233
 234, 266, 299, 300, 301
*Nset, nset=top
  13,  14,  25,  29,  32,  34,  92,  93,  94,  95, 174, 175, 176, 177, 178, 235
 236, 237, 238, 239, 240, 255, 256, 257, 258, 259, 260, 261, 262, 263, 264, 265
 279, 280, 281, 282, 283
*End Part
**  
**
** ASSEMBLY
**
*Assembly, name=Assembly
**  
*Instance, name=Part-1-1, part=Part-1
*End Instance
**  
*End Assembly
** 
** MATERIALS
** 
*Material, name=al
*Material, name=sic
