*Heading
** Job name: C1M2-H0002-NP Model name: C1M2-NP
** Generated by: Abaqus/CAE 2020
*Preprint, echo=NO, model=NO, history=NO, contact=NO
**
** PARTS
**
*Part, name=Part-1
*Node
1, 0.49900002, 0.41050001
2, 0.00000000, 0.41050001
3, 0.00000000, 0.00000000
4, 0.49900002, 0.00000000
5, 1.05700002, 0.58950001
6, 0.49900002, 0.58950001
7, 1.05700002, 0.41050001
8, 0.00000000, 0.58950001
9, 0.49900002, 1.41050003
10, 0.00000000, 1.41050003
11, 0.00000000, 1.58950000
12, 0.49900002, 1.58950000
13, 0.49900002, 2.00000009
14, 0.00000000, 2.00000009
15, 2.79000006, 0.41050001
16, 3.46400007, 0.41050001
17, 3.46400007, 0.58950001
18, 2.79000006, 0.58950001
19, 2.23200000, 0.41050001
20, 2.23200000, 0.00000000
21, 2.79000006, 0.00000000
22, 2.23200000, 0.58950001
23, 1.05700002, 1.41050003
24, 1.05700002, 1.58950000
25, 1.05700002, 2.00000009
26, 3.46400007, 1.41050003
27, 2.79000006, 1.41050003
28, 2.23200000, 1.41050003
29, 2.79000006, 2.00000009
30, 2.79000006, 1.58950000
31, 3.46400007, 1.58950000
32, 3.46400007, 2.00000009
33, 2.23200000, 1.58950000
34, 2.23200000, 2.00000009
35, 1.05700002, 0.00000000
36, 3.46400007, 0.00000000
37, 0.39920001, 0.41050001
38, 0.29940001, 0.41050001
39, 0.19959999, 0.41050001
40, 0.09980000, 0.41050001
41, 0.00000000, 0.30787499
42, 0.00000000, 0.20525001
43, 0.00000000, 0.10262500
44, 0.09980000, 0.00000000
45, 0.19960001, 0.00000000
46, 0.29940001, 0.00000000
47, 0.39920001, 0.00000000
48, 0.49900002, 0.10262500
49, 0.49900002, 0.20524999
50, 0.49900002, 0.30787499
51, 0.96400001, 0.58950001
52, 0.87100000, 0.58950001
53, 0.77799999, 0.58950001
54, 0.68499998, 0.58950001
55, 0.59200003, 0.58950001
56, 0.49900002, 0.50000002
57, 0.59199997, 0.41050001
58, 0.68499998, 0.41050001
59, 0.77799999, 0.41050001
60, 0.87100000, 0.41050001
61, 0.96400001, 0.41050001
62, 1.05700002, 0.50000002
63, 0.09980000, 0.58950001
64, 0.19960001, 0.58950001
65, 0.29940001, 0.58950001
66, 0.39920001, 0.58950001
67, 0.49900002, 0.69212500
68, 0.49900002, 0.79475000
69, 0.49900002, 0.89737499
70, 0.49900002, 1.00000005
71, 0.49900002, 1.10262504
72, 0.49900002, 1.20525004
73, 0.49900002, 1.30787503
74, 0.39920001, 1.41050003
75, 0.29940001, 1.41050003
76, 0.19960001, 1.41050003
77, 0.09980000, 1.41050003
78, 0.00000000, 1.30787503
79, 0.00000000, 1.20525004
80, 0.00000000, 1.10262504
81, 0.00000000, 1.00000005
82, 0.00000000, 0.89737499
83, 0.00000000, 0.79475000
84, 0.00000000, 0.69212500
85, 0.09980000, 1.58950000
86, 0.19959999, 1.58950000
87, 0.29939998, 1.58950000
88, 0.39919998, 1.58950000
89, 0.49900002, 1.69212499
90, 0.49900002, 1.79474999
91, 0.49900002, 1.89737498
92, 0.39920001, 2.00000009
93, 0.29940001, 2.00000009
94, 0.19960001, 2.00000009
95, 0.09980000, 2.00000009
96, 0.00000000, 1.89737498
97, 0.00000000, 1.79474999
98, 0.00000000, 1.69212499
99, 2.88628577, 0.41050001
100, 2.98257149, 0.41050001
101, 3.07885720, 0.41050001
102, 3.17514292, 0.41050001
103, 3.27142864, 0.41050001
104, 3.36771435, 0.41050001
105, 3.46400007, 0.50000002
106, 3.36771435, 0.58950001
107, 3.27142864, 0.58950001
108, 3.17514292, 0.58950001
109, 3.07885720, 0.58950001
110, 2.98257149, 0.58950001
111, 2.88628577, 0.58950001
112, 2.79000006, 0.50000002
113, 2.23200000, 0.30787499
114, 2.23200000, 0.20524999
115, 2.23200000, 0.10262500
116, 2.32500001, 0.00000000
117, 2.41800002, 0.00000000
118, 2.51100003, 0.00000000
119, 2.60400004, 0.00000000
120, 2.69700005, 0.00000000
121, 2.79000006, 0.10262500
122, 2.79000006, 0.20524999
123, 2.79000006, 0.30787499
124, 2.69700005, 0.41050001
125, 2.60400004, 0.41050001
126, 2.51100003, 0.41050001
127, 2.41800002, 0.41050001
128, 2.32500001, 0.41050001
129, 2.13408330, 0.58950001
130, 2.03616661, 0.58950001
131, 1.93825003, 0.58950001
132, 1.84033334, 0.58950001
133, 1.74241664, 0.58950001
134, 1.64449995, 0.58950001
135, 1.54658337, 0.58950001
136, 1.44866668, 0.58950001
137, 1.35074998, 0.58950001
138, 1.25283329, 0.58950001
139, 1.15491671, 0.58950001
140, 1.15491671, 0.41050001
141, 1.25283329, 0.41050001
142, 1.35074998, 0.41050001
143, 1.44866668, 0.41050001
144, 1.54658337, 0.41050001
145, 1.64449995, 0.41050001
146, 1.74241664, 0.41050001
147, 1.84033334, 0.41050001
148, 1.93825003, 0.41050001
149, 2.03616661, 0.41050001
150, 2.13408330, 0.41050001
151, 2.23200000, 0.50000002
152, 0.96400001, 1.41050003
153, 0.87100000, 1.41050003
154, 0.77799999, 1.41050003
155, 0.68499998, 1.41050003
156, 0.59200003, 1.41050003
157, 1.05700002, 0.69212500
158, 1.05700002, 0.79475000
159, 1.05700002, 0.89737499
160, 1.05700002, 1.00000005
161, 1.05700002, 1.10262504
162, 1.05700002, 1.20525004
163, 1.05700002, 1.30787503
164, 0.49900002, 1.50000001
165, 0.00000000, 1.50000001
166, 0.59199997, 1.58950000
167, 0.68499998, 1.58950000
168, 0.77799999, 1.58950000
169, 0.87100000, 1.58950000
170, 0.96400001, 1.58950000
171, 1.05700002, 1.69212499
172, 1.05700002, 1.79474999
173, 1.05700002, 1.89737498
174, 0.96400001, 2.00000009
175, 0.87100000, 2.00000009
176, 0.77799999, 2.00000009
177, 0.68499998, 2.00000009
178, 0.59200003, 2.00000009
179, 3.46400007, 0.69212500
180, 3.46400007, 0.79475000
181, 3.46400007, 0.89737499
182, 3.46400007, 1.00000005
183, 3.46400007, 1.10262504
184, 3.46400007, 1.20525004
185, 3.46400007, 1.30787503
186, 3.36771435, 1.41050003
187, 3.27142864, 1.41050003
188, 3.17514292, 1.41050003
189, 3.07885720, 1.41050003
190, 2.98257149, 1.41050003
191, 2.88628577, 1.41050003
192, 2.79000006, 1.30787503
193, 2.79000006, 1.20525004
194, 2.79000006, 1.10262504
195, 2.79000006, 1.00000005
196, 2.79000006, 0.89737499
197, 2.79000006, 0.79475000
198, 2.79000006, 0.69212500
199, 2.69700005, 0.58950001
200, 2.60400004, 0.58950001
201, 2.51100003, 0.58950001
202, 2.41800002, 0.58950001
203, 2.32500001, 0.58950001
204, 2.13408330, 1.41050003
205, 2.03616661, 1.41050003
206, 1.93825003, 1.41050003
207, 1.84033334, 1.41050003
208, 1.74241664, 1.41050003
209, 1.64449995, 1.41050003
210, 1.54658337, 1.41050003
211, 1.44866668, 1.41050003
212, 1.35074998, 1.41050003
213, 1.25283329, 1.41050003
214, 1.15491671, 1.41050003
215, 2.23200000, 0.69212500
216, 2.23200000, 0.79475000
217, 2.23200000, 0.89737499
218, 2.23200000, 1.00000005
219, 2.23200000, 1.10262504
220, 2.23200000, 1.20525004
221, 2.23200000, 1.30787503
222, 1.05700002, 1.50000001
223, 2.79000006, 1.89737498
224, 2.79000006, 1.79474999
225, 2.79000006, 1.69212499
226, 2.88628577, 1.58950000
227, 2.98257149, 1.58950000
228, 3.07885720, 1.58950000
229, 3.17514292, 1.58950000
230, 3.27142864, 1.58950000
231, 3.36771435, 1.58950000
232, 3.46400007, 1.69212499
233, 3.46400007, 1.79474999
234, 3.46400007, 1.89737498
235, 3.36771435, 2.00000009
236, 3.27142864, 2.00000009
237, 3.17514292, 2.00000009
238, 3.07885720, 2.00000009
239, 2.98257149, 2.00000009
240, 2.88628577, 2.00000009
241, 1.15491671, 1.58950000
242, 1.25283329, 1.58950000
243, 1.35074998, 1.58950000
244, 1.44866668, 1.58950000
245, 1.54658337, 1.58950000
246, 1.64449995, 1.58950000
247, 1.74241664, 1.58950000
248, 1.84033334, 1.58950000
249, 1.93825003, 1.58950000
250, 2.03616661, 1.58950000
251, 2.13408330, 1.58950000
252, 2.23200000, 1.69212499
253, 2.23200000, 1.79474999
254, 2.23200000, 1.89737498
255, 2.13408330, 2.00000009
256, 2.03616661, 2.00000009
257, 1.93825003, 2.00000009
258, 1.84033334, 2.00000009
259, 1.74241664, 2.00000009
260, 1.64449995, 2.00000009
261, 1.54658337, 2.00000009
262, 1.44866668, 2.00000009
263, 1.35074998, 2.00000009
264, 1.25283329, 2.00000009
265, 1.15491671, 2.00000009
266, 3.46400007, 1.50000001
267, 2.79000006, 1.50000001
268, 2.69700005, 1.41050003
269, 2.60400004, 1.41050003
270, 2.51100003, 1.41050003
271, 2.41800002, 1.41050003
272, 2.32500001, 1.41050003
273, 2.23200000, 1.50000001
274, 2.32500001, 1.58950000
275, 2.41800002, 1.58950000
276, 2.51100003, 1.58950000
277, 2.60400004, 1.58950000
278, 2.69700005, 1.58950000
279, 2.69700005, 2.00000009
280, 2.60400004, 2.00000009
281, 2.51100003, 2.00000009
282, 2.41800002, 2.00000009
283, 2.32500001, 2.00000009
284, 0.59199997, 0.00000000
285, 0.68500004, 0.00000000
286, 0.77800004, 0.00000000
287, 0.87100005, 0.00000000
288, 0.96400006, 0.00000000
289, 1.05700002, 0.10262500
290, 1.05700002, 0.20524999
291, 1.05700002, 0.30787499
292, 0.00000000, 0.50000002
293, 2.88628577, 0.00000000
294, 2.98257149, 0.00000000
295, 3.07885720, 0.00000000
296, 3.17514292, 0.00000000
297, 3.27142864, 0.00000000
298, 3.36771435, 0.00000000
299, 3.46400007, 0.10262500
300, 3.46400007, 0.20524999
301, 3.46400007, 0.30787499
302, 1.15491671, 0.00000000
303, 1.25283340, 0.00000000
304, 1.35075010, 0.00000000
305, 1.44866668, 0.00000000
306, 1.54658325, 0.00000000
307, 1.64449995, 0.00000000
308, 1.74241664, 0.00000000
309, 1.84033334, 0.00000000
310, 1.93824992, 0.00000000
311, 2.03616661, 0.00000000
312, 2.13408354, 0.00000000
313, 0.39920001, 0.30787499
314, 0.29940001, 0.30787499
315, 0.19960001, 0.30787499
316, 0.09980000, 0.30787499
317, 0.39920001, 0.20525001
318, 0.29940001, 0.20525001
319, 0.19960001, 0.20525001
320, 0.09980000, 0.20525001
321, 0.39920001, 0.10262500
322, 0.29940001, 0.10262500
323, 0.19960001, 0.10262500
324, 0.09980000, 0.10262500
325, 0.96400001, 0.50000002
326, 0.87100000, 0.50000002
327, 0.77799999, 0.50000002
328, 0.68499998, 0.50000002
329, 0.59200003, 0.50000002
330, 0.09980000, 0.69212500
331, 0.19960001, 0.69212500
332, 0.29940001, 0.69212500
333, 0.39920001, 0.69212500
334, 0.09980000, 0.79475000
335, 0.19960001, 0.79475000
336, 0.29940001, 0.79475000
337, 0.39920001, 0.79475000
338, 0.09980000, 0.89737499
339, 0.19960001, 0.89737499
340, 0.29940001, 0.89737499
341, 0.39920001, 0.89737499
342, 0.09980000, 1.00000005
343, 0.19960001, 1.00000005
344, 0.29940001, 1.00000005
345, 0.39920001, 1.00000005
346, 0.09980000, 1.10262504
347, 0.19960001, 1.10262504
348, 0.29940001, 1.10262504
349, 0.39920001, 1.10262504
350, 0.09980000, 1.20525004
351, 0.19960001, 1.20525004
352, 0.29940001, 1.20525004
353, 0.39920001, 1.20525004
354, 0.09980000, 1.30787503
355, 0.19960001, 1.30787503
356, 0.29940001, 1.30787503
357, 0.39920001, 1.30787503
358, 0.09980000, 1.69212499
359, 0.19960001, 1.69212499
360, 0.29940001, 1.69212499
361, 0.39920001, 1.69212499
362, 0.09980000, 1.79474999
363, 0.19960001, 1.79474999
364, 0.29940001, 1.79474999
365, 0.39920001, 1.79474999
366, 0.09980000, 1.89737498
367, 0.19960001, 1.89737498
368, 0.29940001, 1.89737498
369, 0.39920001, 1.89737498
370, 2.88628577, 0.50000002
371, 2.98257149, 0.50000002
372, 3.07885720, 0.50000002
373, 3.17514292, 0.50000002
374, 3.27142864, 0.50000002
375, 3.36771435, 0.50000002
376, 2.32500001, 0.30787499
377, 2.32500001, 0.20525001
378, 2.32500001, 0.10262500
379, 2.41800002, 0.30787499
380, 2.41800002, 0.20525001
381, 2.41800002, 0.10262500
382, 2.51100003, 0.30787499
383, 2.51100003, 0.20525001
384, 2.51100003, 0.10262500
385, 2.60400004, 0.30787499
386, 2.60400004, 0.20525001
387, 2.60400004, 0.10262500
388, 2.69700005, 0.30787499
389, 2.69700005, 0.20525001
390, 2.69700005, 0.10262500
391, 2.13408330, 0.50000002
392, 2.03616661, 0.50000002
393, 1.93825003, 0.50000002
394, 1.84033334, 0.50000002
395, 1.74241664, 0.50000002
396, 1.64449995, 0.50000002
397, 1.54658337, 0.50000002
398, 1.44866668, 0.50000002
399, 1.35074998, 0.50000002
400, 1.25283329, 0.50000002
401, 1.15491671, 0.50000002
402, 0.96400001, 1.30787503
403, 0.87100000, 1.30787503
404, 0.77799999, 1.30787503
405, 0.68499998, 1.30787503
406, 0.59200003, 1.30787503
407, 0.96400001, 1.20525004
408, 0.87100000, 1.20525004
409, 0.77799999, 1.20525004
410, 0.68499998, 1.20525004
411, 0.59200003, 1.20525004
412, 0.96400001, 1.10262504
413, 0.87100000, 1.10262504
414, 0.77799999, 1.10262504
415, 0.68499998, 1.10262504
416, 0.59200003, 1.10262504
417, 0.96400001, 1.00000005
418, 0.87100000, 1.00000005
419, 0.77799999, 1.00000005
420, 0.68499998, 1.00000005
421, 0.59200003, 1.00000005
422, 0.96400001, 0.89737499
423, 0.87100000, 0.89737499
424, 0.77799999, 0.89737499
425, 0.68499998, 0.89737499
426, 0.59200003, 0.89737499
427, 0.96400001, 0.79475000
428, 0.87100000, 0.79475000
429, 0.77799999, 0.79475000
430, 0.68499998, 0.79475000
431, 0.59200003, 0.79475000
432, 0.96400001, 0.69212500
433, 0.87100000, 0.69212500
434, 0.77799999, 0.69212500
435, 0.68499998, 0.69212500
436, 0.59200003, 0.69212500
437, 0.09980000, 1.50000001
438, 0.19960001, 1.50000001
439, 0.29940001, 1.50000001
440, 0.39920001, 1.50000001
441, 0.59200003, 1.89737498
442, 0.59200003, 1.79474999
443, 0.59200003, 1.69212499
444, 0.68499998, 1.89737498
445, 0.68499998, 1.79474999
446, 0.68499998, 1.69212499
447, 0.77799999, 1.89737498
448, 0.77799999, 1.79474999
449, 0.77799999, 1.69212499
450, 0.87100000, 1.89737498
451, 0.87100000, 1.79474999
452, 0.87100000, 1.69212499
453, 0.96400001, 1.89737498
454, 0.96400001, 1.79474999
455, 0.96400001, 1.69212499
456, 2.88628577, 0.69212500
457, 2.98257149, 0.69212500
458, 3.07885720, 0.69212500
459, 3.17514292, 0.69212500
460, 3.27142864, 0.69212500
461, 3.36771435, 0.69212500
462, 2.88628577, 0.79475000
463, 2.98257149, 0.79475000
464, 3.07885720, 0.79475000
465, 3.17514292, 0.79475000
466, 3.27142864, 0.79475000
467, 3.36771435, 0.79475000
468, 2.88628577, 0.89737499
469, 2.98257149, 0.89737499
470, 3.07885720, 0.89737499
471, 3.17514292, 0.89737499
472, 3.27142864, 0.89737499
473, 3.36771435, 0.89737499
474, 2.88628577, 1.00000005
475, 2.98257149, 1.00000005
476, 3.07885720, 1.00000005
477, 3.17514292, 1.00000005
478, 3.27142864, 1.00000005
479, 3.36771435, 1.00000005
480, 2.88628577, 1.10262504
481, 2.98257149, 1.10262504
482, 3.07885720, 1.10262504
483, 3.17514292, 1.10262504
484, 3.27142864, 1.10262504
485, 3.36771435, 1.10262504
486, 2.88628577, 1.20525004
487, 2.98257149, 1.20525004
488, 3.07885720, 1.20525004
489, 3.17514292, 1.20525004
490, 3.27142864, 1.20525004
491, 3.36771435, 1.20525004
492, 2.88628577, 1.30787503
493, 2.98257149, 1.30787503
494, 3.07885720, 1.30787503
495, 3.17514292, 1.30787503
496, 3.27142864, 1.30787503
497, 3.36771435, 1.30787503
498, 2.32500001, 0.50000002
499, 2.41800002, 0.50000002
500, 2.51100003, 0.50000002
501, 2.60400004, 0.50000002
502, 2.69700005, 0.50000002
503, 2.13408330, 1.30787503
504, 2.03616661, 1.30787503
505, 1.93825003, 1.30787503
506, 1.84033334, 1.30787503
507, 1.74241664, 1.30787503
508, 1.64449995, 1.30787503
509, 1.54658337, 1.30787503
510, 1.44866668, 1.30787503
511, 1.35074998, 1.30787503
512, 1.25283329, 1.30787503
513, 1.15491671, 1.30787503
514, 2.13408330, 1.20525004
515, 2.03616661, 1.20525004
516, 1.93825003, 1.20525004
517, 1.84033334, 1.20525004
518, 1.74241664, 1.20525004
519, 1.64449995, 1.20525004
520, 1.54658337, 1.20525004
521, 1.44866668, 1.20525004
522, 1.35074998, 1.20525004
523, 1.25283329, 1.20525004
524, 1.15491671, 1.20525004
525, 2.13408330, 1.10262504
526, 2.03616661, 1.10262504
527, 1.93825003, 1.10262504
528, 1.84033334, 1.10262504
529, 1.74241664, 1.10262504
530, 1.64449995, 1.10262504
531, 1.54658337, 1.10262504
532, 1.44866668, 1.10262504
533, 1.35074998, 1.10262504
534, 1.25283329, 1.10262504
535, 1.15491671, 1.10262504
536, 2.13408330, 1.00000005
537, 2.03616661, 1.00000005
538, 1.93825003, 1.00000005
539, 1.84033334, 1.00000005
540, 1.74241664, 1.00000005
541, 1.64449995, 1.00000005
542, 1.54658337, 1.00000005
543, 1.44866668, 1.00000005
544, 1.35074998, 1.00000005
545, 1.25283329, 1.00000005
546, 1.15491671, 1.00000005
547, 2.13408330, 0.89737499
548, 2.03616661, 0.89737499
549, 1.93825003, 0.89737499
550, 1.84033334, 0.89737499
551, 1.74241664, 0.89737499
552, 1.64449995, 0.89737499
553, 1.54658337, 0.89737499
554, 1.44866668, 0.89737499
555, 1.35074998, 0.89737499
556, 1.25283329, 0.89737499
557, 1.15491671, 0.89737499
558, 2.13408330, 0.79475000
559, 2.03616661, 0.79475000
560, 1.93825003, 0.79475000
561, 1.84033334, 0.79475000
562, 1.74241664, 0.79475000
563, 1.64449995, 0.79475000
564, 1.54658337, 0.79475000
565, 1.44866668, 0.79475000
566, 1.35074998, 0.79475000
567, 1.25283329, 0.79475000
568, 1.15491671, 0.79475000
569, 2.13408330, 0.69212500
570, 2.03616661, 0.69212500
571, 1.93825003, 0.69212500
572, 1.84033334, 0.69212500
573, 1.74241664, 0.69212500
574, 1.64449995, 0.69212500
575, 1.54658337, 0.69212500
576, 1.44866668, 0.69212500
577, 1.35074998, 0.69212500
578, 1.25283329, 0.69212500
579, 1.15491671, 0.69212500
580, 0.96400001, 1.50000001
581, 0.87100000, 1.50000001
582, 0.77799999, 1.50000001
583, 0.68499998, 1.50000001
584, 0.59200003, 1.50000001
585, 2.88628577, 1.89737498
586, 2.88628577, 1.79474999
587, 2.88628577, 1.69212499
588, 2.98257149, 1.89737498
589, 2.98257149, 1.79474999
590, 2.98257149, 1.69212499
591, 3.07885720, 1.89737498
592, 3.07885720, 1.79474999
593, 3.07885720, 1.69212499
594, 3.17514292, 1.89737498
595, 3.17514292, 1.79474999
596, 3.17514292, 1.69212499
597, 3.27142864, 1.89737498
598, 3.27142864, 1.79474999
599, 3.27142864, 1.69212499
600, 3.36771435, 1.89737498
601, 3.36771435, 1.79474999
602, 3.36771435, 1.69212499
603, 1.15491671, 1.89737498
604, 1.15491671, 1.79474999
605, 1.15491671, 1.69212499
606, 1.25283329, 1.89737498
607, 1.25283329, 1.79474999
608, 1.25283329, 1.69212499
609, 1.35074998, 1.89737498
610, 1.35074998, 1.79474999
611, 1.35074998, 1.69212499
612, 1.44866668, 1.89737498
613, 1.44866668, 1.79474999
614, 1.44866668, 1.69212499
615, 1.54658337, 1.89737498
616, 1.54658337, 1.79474999
617, 1.54658337, 1.69212499
618, 1.64449995, 1.89737498
619, 1.64449995, 1.79474999
620, 1.64449995, 1.69212499
621, 1.74241664, 1.89737498
622, 1.74241664, 1.79474999
623, 1.74241664, 1.69212499
624, 1.84033334, 1.89737498
625, 1.84033334, 1.79474999
626, 1.84033334, 1.69212499
627, 1.93825003, 1.89737498
628, 1.93825003, 1.79474999
629, 1.93825003, 1.69212499
630, 2.03616661, 1.89737498
631, 2.03616661, 1.79474999
632, 2.03616661, 1.69212499
633, 2.13408330, 1.89737498
634, 2.13408330, 1.79474999
635, 2.13408330, 1.69212499
636, 2.88628577, 1.50000001
637, 2.98257149, 1.50000001
638, 3.07885720, 1.50000001
639, 3.17514292, 1.50000001
640, 3.27142864, 1.50000001
641, 3.36771435, 1.50000001
642, 2.32500001, 1.30787503
643, 2.32500001, 1.20525004
644, 2.32500001, 1.10262504
645, 2.32500001, 1.00000005
646, 2.32500001, 0.89737499
647, 2.32500001, 0.79475000
648, 2.32500001, 0.69212500
649, 2.41800002, 1.30787503
650, 2.41800002, 1.20525004
651, 2.41800002, 1.10262504
652, 2.41800002, 1.00000005
653, 2.41800002, 0.89737499
654, 2.41800002, 0.79475000
655, 2.41800002, 0.69212500
656, 2.51100003, 1.30787503
657, 2.51100003, 1.20525004
658, 2.51100003, 1.10262504
659, 2.51100003, 1.00000005
660, 2.51100003, 0.89737499
661, 2.51100003, 0.79475000
662, 2.51100003, 0.69212500
663, 2.60400004, 1.30787503
664, 2.60400004, 1.20525004
665, 2.60400004, 1.10262504
666, 2.60400004, 1.00000005
667, 2.60400004, 0.89737499
668, 2.60400004, 0.79475000
669, 2.60400004, 0.69212500
670, 2.69700005, 1.30787503
671, 2.69700005, 1.20525004
672, 2.69700005, 1.10262504
673, 2.69700005, 1.00000005
674, 2.69700005, 0.89737499
675, 2.69700005, 0.79475000
676, 2.69700005, 0.69212500
677, 2.13408330, 1.50000001
678, 2.03616661, 1.50000001
679, 1.93825003, 1.50000001
680, 1.84033334, 1.50000001
681, 1.74241664, 1.50000001
682, 1.64449995, 1.50000001
683, 1.54658337, 1.50000001
684, 1.44866668, 1.50000001
685, 1.35074998, 1.50000001
686, 1.25283329, 1.50000001
687, 1.15491671, 1.50000001
688, 2.32500001, 1.89737498
689, 2.32500001, 1.79474999
690, 2.32500001, 1.69212499
691, 2.41800002, 1.89737498
692, 2.41800002, 1.79474999
693, 2.41800002, 1.69212499
694, 2.51100003, 1.89737498
695, 2.51100003, 1.79474999
696, 2.51100003, 1.69212499
697, 2.60400004, 1.89737498
698, 2.60400004, 1.79474999
699, 2.60400004, 1.69212499
700, 2.69700005, 1.89737498
701, 2.69700005, 1.79474999
702, 2.69700005, 1.69212499
703, 2.69700005, 1.50000001
704, 2.60400004, 1.50000001
705, 2.51100003, 1.50000001
706, 2.41800002, 1.50000001
707, 2.32500001, 1.50000001
708, 0.59199997, 0.30787499
709, 0.59199997, 0.20524999
710, 0.59199997, 0.10262500
711, 0.68499998, 0.30787499
712, 0.68499998, 0.20524999
713, 0.68499998, 0.10262500
714, 0.77799999, 0.30787499
715, 0.77799999, 0.20524999
716, 0.77799999, 0.10262500
717, 0.87100000, 0.30787499
718, 0.87100000, 0.20524999
719, 0.87100000, 0.10262500
720, 0.96400001, 0.30787499
721, 0.96400001, 0.20524999
722, 0.96400001, 0.10262500
723, 0.09980000, 0.50000002
724, 0.19960001, 0.50000002
725, 0.29940001, 0.50000002
726, 0.39920001, 0.50000002
727, 2.88628577, 0.30787499
728, 2.88628577, 0.20524999
729, 2.88628577, 0.10262500
730, 2.98257149, 0.30787499
731, 2.98257149, 0.20524999
732, 2.98257149, 0.10262500
733, 3.07885720, 0.30787499
734, 3.07885720, 0.20524999
735, 3.07885720, 0.10262500
736, 3.17514292, 0.30787499
737, 3.17514292, 0.20524999
738, 3.17514292, 0.10262500
739, 3.27142864, 0.30787499
740, 3.27142864, 0.20524999
741, 3.27142864, 0.10262500
742, 3.36771435, 0.30787499
743, 3.36771435, 0.20524999
744, 3.36771435, 0.10262500
745, 1.15491671, 0.30787499
746, 1.15491671, 0.20524999
747, 1.15491671, 0.10262500
748, 1.25283329, 0.30787499
749, 1.25283329, 0.20524999
750, 1.25283329, 0.10262500
751, 1.35074998, 0.30787499
752, 1.35074998, 0.20524999
753, 1.35074998, 0.10262500
754, 1.44866668, 0.30787499
755, 1.44866668, 0.20524999
756, 1.44866668, 0.10262500
757, 1.54658337, 0.30787499
758, 1.54658337, 0.20524999
759, 1.54658337, 0.10262500
760, 1.64449995, 0.30787499
761, 1.64449995, 0.20524999
762, 1.64449995, 0.10262500
763, 1.74241664, 0.30787499
764, 1.74241664, 0.20524999
765, 1.74241664, 0.10262500
766, 1.84033334, 0.30787499
767, 1.84033334, 0.20524999
768, 1.84033334, 0.10262500
769, 1.93824992, 0.30787499
770, 1.93824992, 0.20524999
771, 1.93824992, 0.10262500
772, 2.03616638, 0.30787499
773, 2.03616638, 0.20524999
774, 2.03616638, 0.10262500
775, 2.13408330, 0.30787499
776, 2.13408330, 0.20524999
777, 2.13408330, 0.10262500
*Element, type=CPS4R
 1,   1,  37, 313,  50
 2,  37,  38, 314, 313
 3,  38,  39, 315, 314
 4,  39,  40, 316, 315
 5,  40,   2,  41, 316
 6,  50, 313, 317,  49
 7, 313, 314, 318, 317
 8, 314, 315, 319, 318
 9, 315, 316, 320, 319
10, 316,  41,  42, 320
11,  49, 317, 321,  48
12, 317, 318, 322, 321
13, 318, 319, 323, 322
14, 319, 320, 324, 323
15, 320,  42,  43, 324
16,  48, 321,  47,   4
17, 321, 322,  46,  47
18, 322, 323,  45,  46
19, 323, 324,  44,  45
20, 324,  43,   3,  44
21,   5,  51, 325,  62
22,  51,  52, 326, 325
23,  52,  53, 327, 326
24,  53,  54, 328, 327
25,  54,  55, 329, 328
26,  55,   6,  56, 329
27,  62, 325,  61,   7
28, 325, 326,  60,  61
29, 326, 327,  59,  60
30, 327, 328,  58,  59
31, 328, 329,  57,  58
32, 329,  56,   1,  57
33,   8,  63, 330,  84
34,  63,  64, 331, 330
35,  64,  65, 332, 331
36,  65,  66, 333, 332
37,  66,   6,  67, 333
38,  84, 330, 334,  83
39, 330, 331, 335, 334
40, 331, 332, 336, 335
41, 332, 333, 337, 336
42, 333,  67,  68, 337
43,  83, 334, 338,  82
44, 334, 335, 339, 338
45, 335, 336, 340, 339
46, 336, 337, 341, 340
47, 337,  68,  69, 341
48,  82, 338, 342,  81
49, 338, 339, 343, 342
50, 339, 340, 344, 343
51, 340, 341, 345, 344
52, 341,  69,  70, 345
53,  81, 342, 346,  80
54, 342, 343, 347, 346
55, 343, 344, 348, 347
56, 344, 345, 349, 348
57, 345,  70,  71, 349
58,  80, 346, 350,  79
59, 346, 347, 351, 350
60, 347, 348, 352, 351
61, 348, 349, 353, 352
62, 349,  71,  72, 353
63,  79, 350, 354,  78
64, 350, 351, 355, 354
65, 351, 352, 356, 355
66, 352, 353, 357, 356
67, 353,  72,  73, 357
68,  78, 354,  77,  10
69, 354, 355,  76,  77
70, 355, 356,  75,  76
71, 356, 357,  74,  75
72, 357,  73,   9,  74
73,  11,  85, 358,  98
74,  85,  86, 359, 358
75,  86,  87, 360, 359
76,  87,  88, 361, 360
77,  88,  12,  89, 361
78,  98, 358, 362,  97
79, 358, 359, 363, 362
80, 359, 360, 364, 363
81, 360, 361, 365, 364
82, 361,  89,  90, 365
83,  97, 362, 366,  96
84, 362, 363, 367, 366
85, 363, 364, 368, 367
86, 364, 365, 369, 368
87, 365,  90,  91, 369
88,  96, 366,  95,  14
89, 366, 367,  94,  95
90, 367, 368,  93,  94
91, 368, 369,  92,  93
92, 369,  91,  13,  92
 93,  15,  99, 370, 112
 94,  99, 100, 371, 370
 95, 100, 101, 372, 371
 96, 101, 102, 373, 372
 97, 102, 103, 374, 373
 98, 103, 104, 375, 374
 99, 104,  16, 105, 375
100, 112, 370, 111,  18
101, 370, 371, 110, 111
102, 371, 372, 109, 110
103, 372, 373, 108, 109
104, 373, 374, 107, 108
105, 374, 375, 106, 107
106, 375, 105,  17, 106
107,  19, 113, 376, 128
108, 113, 114, 377, 376
109, 114, 115, 378, 377
110, 115,  20, 116, 378
111, 128, 376, 379, 127
112, 376, 377, 380, 379
113, 377, 378, 381, 380
114, 378, 116, 117, 381
115, 127, 379, 382, 126
116, 379, 380, 383, 382
117, 380, 381, 384, 383
118, 381, 117, 118, 384
119, 126, 382, 385, 125
120, 382, 383, 386, 385
121, 383, 384, 387, 386
122, 384, 118, 119, 387
123, 125, 385, 388, 124
124, 385, 386, 389, 388
125, 386, 387, 390, 389
126, 387, 119, 120, 390
127, 124, 388, 123,  15
128, 388, 389, 122, 123
129, 389, 390, 121, 122
130, 390, 120,  21, 121
131,  22, 129, 391, 151
132, 129, 130, 392, 391
133, 130, 131, 393, 392
134, 131, 132, 394, 393
135, 132, 133, 395, 394
136, 133, 134, 396, 395
137, 134, 135, 397, 396
138, 135, 136, 398, 397
139, 136, 137, 399, 398
140, 137, 138, 400, 399
141, 138, 139, 401, 400
142, 139,   5,  62, 401
143, 151, 391, 150,  19
144, 391, 392, 149, 150
145, 392, 393, 148, 149
146, 393, 394, 147, 148
147, 394, 395, 146, 147
148, 395, 396, 145, 146
149, 396, 397, 144, 145
150, 397, 398, 143, 144
151, 398, 399, 142, 143
152, 399, 400, 141, 142
153, 400, 401, 140, 141
154, 401,  62,   7, 140
155,  23, 152, 402, 163
156, 152, 153, 403, 402
157, 153, 154, 404, 403
158, 154, 155, 405, 404
159, 155, 156, 406, 405
160, 156,   9,  73, 406
161, 163, 402, 407, 162
162, 402, 403, 408, 407
163, 403, 404, 409, 408
164, 404, 405, 410, 409
165, 405, 406, 411, 410
166, 406,  73,  72, 411
167, 162, 407, 412, 161
168, 407, 408, 413, 412
169, 408, 409, 414, 413
170, 409, 410, 415, 414
171, 410, 411, 416, 415
172, 411,  72,  71, 416
173, 161, 412, 417, 160
174, 412, 413, 418, 417
175, 413, 414, 419, 418
176, 414, 415, 420, 419
177, 415, 416, 421, 420
178, 416,  71,  70, 421
179, 160, 417, 422, 159
180, 417, 418, 423, 422
181, 418, 419, 424, 423
182, 419, 420, 425, 424
183, 420, 421, 426, 425
184, 421,  70,  69, 426
185, 159, 422, 427, 158
186, 422, 423, 428, 427
187, 423, 424, 429, 428
188, 424, 425, 430, 429
189, 425, 426, 431, 430
190, 426,  69,  68, 431
191, 158, 427, 432, 157
192, 427, 428, 433, 432
193, 428, 429, 434, 433
194, 429, 430, 435, 434
195, 430, 431, 436, 435
196, 431,  68,  67, 436
197, 157, 432,  51,   5
198, 432, 433,  52,  51
199, 433, 434,  53,  52
200, 434, 435,  54,  53
201, 435, 436,  55,  54
202, 436,  67,   6,  55
203,  10,  77, 437, 165
204,  77,  76, 438, 437
205,  76,  75, 439, 438
206,  75,  74, 440, 439
207,  74,   9, 164, 440
208, 165, 437,  85,  11
209, 437, 438,  86,  85
210, 438, 439,  87,  86
211, 439, 440,  88,  87
212, 440, 164,  12,  88
213,  13,  91, 441, 178
214,  91,  90, 442, 441
215,  90,  89, 443, 442
216,  89,  12, 166, 443
217, 178, 441, 444, 177
218, 441, 442, 445, 444
219, 442, 443, 446, 445
220, 443, 166, 167, 446
221, 177, 444, 447, 176
222, 444, 445, 448, 447
223, 445, 446, 449, 448
224, 446, 167, 168, 449
225, 176, 447, 450, 175
226, 447, 448, 451, 450
227, 448, 449, 452, 451
228, 449, 168, 169, 452
229, 175, 450, 453, 174
230, 450, 451, 454, 453
231, 451, 452, 455, 454
232, 452, 169, 170, 455
233, 174, 453, 173,  25
234, 453, 454, 172, 173
235, 454, 455, 171, 172
236, 455, 170,  24, 171
237,  18, 111, 456, 198
238, 111, 110, 457, 456
239, 110, 109, 458, 457
240, 109, 108, 459, 458
241, 108, 107, 460, 459
242, 107, 106, 461, 460
243, 106,  17, 179, 461
244, 198, 456, 462, 197
245, 456, 457, 463, 462
246, 457, 458, 464, 463
247, 458, 459, 465, 464
248, 459, 460, 466, 465
249, 460, 461, 467, 466
250, 461, 179, 180, 467
251, 197, 462, 468, 196
252, 462, 463, 469, 468
253, 463, 464, 470, 469
254, 464, 465, 471, 470
255, 465, 466, 472, 471
256, 466, 467, 473, 472
257, 467, 180, 181, 473
258, 196, 468, 474, 195
259, 468, 469, 475, 474
260, 469, 470, 476, 475
261, 470, 471, 477, 476
262, 471, 472, 478, 477
263, 472, 473, 479, 478
264, 473, 181, 182, 479
265, 195, 474, 480, 194
266, 474, 475, 481, 480
267, 475, 476, 482, 481
268, 476, 477, 483, 482
269, 477, 478, 484, 483
270, 478, 479, 485, 484
271, 479, 182, 183, 485
272, 194, 480, 486, 193
273, 480, 481, 487, 486
274, 481, 482, 488, 487
275, 482, 483, 489, 488
276, 483, 484, 490, 489
277, 484, 485, 491, 490
278, 485, 183, 184, 491
279, 193, 486, 492, 192
280, 486, 487, 493, 492
281, 487, 488, 494, 493
282, 488, 489, 495, 494
283, 489, 490, 496, 495
284, 490, 491, 497, 496
285, 491, 184, 185, 497
286, 192, 492, 191,  27
287, 492, 493, 190, 191
288, 493, 494, 189, 190
289, 494, 495, 188, 189
290, 495, 496, 187, 188
291, 496, 497, 186, 187
292, 497, 185,  26, 186
293,  22, 151, 498, 203
294, 151,  19, 128, 498
295, 203, 498, 499, 202
296, 498, 128, 127, 499
297, 202, 499, 500, 201
298, 499, 127, 126, 500
299, 201, 500, 501, 200
300, 500, 126, 125, 501
301, 200, 501, 502, 199
302, 501, 125, 124, 502
303, 199, 502, 112,  18
304, 502, 124,  15, 112
305,  28, 204, 503, 221
306, 204, 205, 504, 503
307, 205, 206, 505, 504
308, 206, 207, 506, 505
309, 207, 208, 507, 506
310, 208, 209, 508, 507
311, 209, 210, 509, 508
312, 210, 211, 510, 509
313, 211, 212, 511, 510
314, 212, 213, 512, 511
315, 213, 214, 513, 512
316, 214,  23, 163, 513
317, 221, 503, 514, 220
318, 503, 504, 515, 514
319, 504, 505, 516, 515
320, 505, 506, 517, 516
321, 506, 507, 518, 517
322, 507, 508, 519, 518
323, 508, 509, 520, 519
324, 509, 510, 521, 520
325, 510, 511, 522, 521
326, 511, 512, 523, 522
327, 512, 513, 524, 523
328, 513, 163, 162, 524
329, 220, 514, 525, 219
330, 514, 515, 526, 525
331, 515, 516, 527, 526
332, 516, 517, 528, 527
333, 517, 518, 529, 528
334, 518, 519, 530, 529
335, 519, 520, 531, 530
336, 520, 521, 532, 531
337, 521, 522, 533, 532
338, 522, 523, 534, 533
339, 523, 524, 535, 534
340, 524, 162, 161, 535
341, 219, 525, 536, 218
342, 525, 526, 537, 536
343, 526, 527, 538, 537
344, 527, 528, 539, 538
345, 528, 529, 540, 539
346, 529, 530, 541, 540
347, 530, 531, 542, 541
348, 531, 532, 543, 542
349, 532, 533, 544, 543
350, 533, 534, 545, 544
351, 534, 535, 546, 545
352, 535, 161, 160, 546
353, 218, 536, 547, 217
354, 536, 537, 548, 547
355, 537, 538, 549, 548
356, 538, 539, 550, 549
357, 539, 540, 551, 550
358, 540, 541, 552, 551
359, 541, 542, 553, 552
360, 542, 543, 554, 553
361, 543, 544, 555, 554
362, 544, 545, 556, 555
363, 545, 546, 557, 556
364, 546, 160, 159, 557
365, 217, 547, 558, 216
366, 547, 548, 559, 558
367, 548, 549, 560, 559
368, 549, 550, 561, 560
369, 550, 551, 562, 561
370, 551, 552, 563, 562
371, 552, 553, 564, 563
372, 553, 554, 565, 564
373, 554, 555, 566, 565
374, 555, 556, 567, 566
375, 556, 557, 568, 567
376, 557, 159, 158, 568
377, 216, 558, 569, 215
378, 558, 559, 570, 569
379, 559, 560, 571, 570
380, 560, 561, 572, 571
381, 561, 562, 573, 572
382, 562, 563, 574, 573
383, 563, 564, 575, 574
384, 564, 565, 576, 575
385, 565, 566, 577, 576
386, 566, 567, 578, 577
387, 567, 568, 579, 578
388, 568, 158, 157, 579
389, 215, 569, 129,  22
390, 569, 570, 130, 129
391, 570, 571, 131, 130
392, 571, 572, 132, 131
393, 572, 573, 133, 132
394, 573, 574, 134, 133
395, 574, 575, 135, 134
396, 575, 576, 136, 135
397, 576, 577, 137, 136
398, 577, 578, 138, 137
399, 578, 579, 139, 138
400, 579, 157,   5, 139
401,  24, 170, 580, 222
402, 170, 169, 581, 580
403, 169, 168, 582, 581
404, 168, 167, 583, 582
405, 167, 166, 584, 583
406, 166,  12, 164, 584
407, 222, 580, 152,  23
408, 580, 581, 153, 152
409, 581, 582, 154, 153
410, 582, 583, 155, 154
411, 583, 584, 156, 155
412, 584, 164,   9, 156
413,  29, 223, 585, 240
414, 223, 224, 586, 585
415, 224, 225, 587, 586
416, 225,  30, 226, 587
417, 240, 585, 588, 239
418, 585, 586, 589, 588
419, 586, 587, 590, 589
420, 587, 226, 227, 590
421, 239, 588, 591, 238
422, 588, 589, 592, 591
423, 589, 590, 593, 592
424, 590, 227, 228, 593
425, 238, 591, 594, 237
426, 591, 592, 595, 594
427, 592, 593, 596, 595
428, 593, 228, 229, 596
429, 237, 594, 597, 236
430, 594, 595, 598, 597
431, 595, 596, 599, 598
432, 596, 229, 230, 599
433, 236, 597, 600, 235
434, 597, 598, 601, 600
435, 598, 599, 602, 601
436, 599, 230, 231, 602
437, 235, 600, 234,  32
438, 600, 601, 233, 234
439, 601, 602, 232, 233
440, 602, 231,  31, 232
441,  25, 173, 603, 265
442, 173, 172, 604, 603
443, 172, 171, 605, 604
444, 171,  24, 241, 605
445, 265, 603, 606, 264
446, 603, 604, 607, 606
447, 604, 605, 608, 607
448, 605, 241, 242, 608
449, 264, 606, 609, 263
450, 606, 607, 610, 609
451, 607, 608, 611, 610
452, 608, 242, 243, 611
453, 263, 609, 612, 262
454, 609, 610, 613, 612
455, 610, 611, 614, 613
456, 611, 243, 244, 614
457, 262, 612, 615, 261
458, 612, 613, 616, 615
459, 613, 614, 617, 616
460, 614, 244, 245, 617
461, 261, 615, 618, 260
462, 615, 616, 619, 618
463, 616, 617, 620, 619
464, 617, 245, 246, 620
465, 260, 618, 621, 259
466, 618, 619, 622, 621
467, 619, 620, 623, 622
468, 620, 246, 247, 623
469, 259, 621, 624, 258
470, 621, 622, 625, 624
471, 622, 623, 626, 625
472, 623, 247, 248, 626
473, 258, 624, 627, 257
474, 624, 625, 628, 627
475, 625, 626, 629, 628
476, 626, 248, 249, 629
477, 257, 627, 630, 256
478, 627, 628, 631, 630
479, 628, 629, 632, 631
480, 629, 249, 250, 632
481, 256, 630, 633, 255
482, 630, 631, 634, 633
483, 631, 632, 635, 634
484, 632, 250, 251, 635
485, 255, 633, 254,  34
486, 633, 634, 253, 254
487, 634, 635, 252, 253
488, 635, 251,  33, 252
489,  27, 191, 636, 267
490, 191, 190, 637, 636
491, 190, 189, 638, 637
492, 189, 188, 639, 638
493, 188, 187, 640, 639
494, 187, 186, 641, 640
495, 186,  26, 266, 641
496, 267, 636, 226,  30
497, 636, 637, 227, 226
498, 637, 638, 228, 227
499, 638, 639, 229, 228
500, 639, 640, 230, 229
501, 640, 641, 231, 230
502, 641, 266,  31, 231
503,  28, 221, 642, 272
504, 221, 220, 643, 642
505, 220, 219, 644, 643
506, 219, 218, 645, 644
507, 218, 217, 646, 645
508, 217, 216, 647, 646
509, 216, 215, 648, 647
510, 215,  22, 203, 648
511, 272, 642, 649, 271
512, 642, 643, 650, 649
513, 643, 644, 651, 650
514, 644, 645, 652, 651
515, 645, 646, 653, 652
516, 646, 647, 654, 653
517, 647, 648, 655, 654
518, 648, 203, 202, 655
519, 271, 649, 656, 270
520, 649, 650, 657, 656
521, 650, 651, 658, 657
522, 651, 652, 659, 658
523, 652, 653, 660, 659
524, 653, 654, 661, 660
525, 654, 655, 662, 661
526, 655, 202, 201, 662
527, 270, 656, 663, 269
528, 656, 657, 664, 663
529, 657, 658, 665, 664
530, 658, 659, 666, 665
531, 659, 660, 667, 666
532, 660, 661, 668, 667
533, 661, 662, 669, 668
534, 662, 201, 200, 669
535, 269, 663, 670, 268
536, 663, 664, 671, 670
537, 664, 665, 672, 671
538, 665, 666, 673, 672
539, 666, 667, 674, 673
540, 667, 668, 675, 674
541, 668, 669, 676, 675
542, 669, 200, 199, 676
543, 268, 670, 192,  27
544, 670, 671, 193, 192
545, 671, 672, 194, 193
546, 672, 673, 195, 194
547, 673, 674, 196, 195
548, 674, 675, 197, 196
549, 675, 676, 198, 197
550, 676, 199,  18, 198
551,  33, 251, 677, 273
552, 251, 250, 678, 677
553, 250, 249, 679, 678
554, 249, 248, 680, 679
555, 248, 247, 681, 680
556, 247, 246, 682, 681
557, 246, 245, 683, 682
558, 245, 244, 684, 683
559, 244, 243, 685, 684
560, 243, 242, 686, 685
561, 242, 241, 687, 686
562, 241,  24, 222, 687
563, 273, 677, 204,  28
564, 677, 678, 205, 204
565, 678, 679, 206, 205
566, 679, 680, 207, 206
567, 680, 681, 208, 207
568, 681, 682, 209, 208
569, 682, 683, 210, 209
570, 683, 684, 211, 210
571, 684, 685, 212, 211
572, 685, 686, 213, 212
573, 686, 687, 214, 213
574, 687, 222,  23, 214
575,  34, 254, 688, 283
576, 254, 253, 689, 688
577, 253, 252, 690, 689
578, 252,  33, 274, 690
579, 283, 688, 691, 282
580, 688, 689, 692, 691
581, 689, 690, 693, 692
582, 690, 274, 275, 693
583, 282, 691, 694, 281
584, 691, 692, 695, 694
585, 692, 693, 696, 695
586, 693, 275, 276, 696
587, 281, 694, 697, 280
588, 694, 695, 698, 697
589, 695, 696, 699, 698
590, 696, 276, 277, 699
591, 280, 697, 700, 279
592, 697, 698, 701, 700
593, 698, 699, 702, 701
594, 699, 277, 278, 702
595, 279, 700, 223,  29
596, 700, 701, 224, 223
597, 701, 702, 225, 224
598, 702, 278,  30, 225
599,  30, 278, 703, 267
600, 278, 277, 704, 703
601, 277, 276, 705, 704
602, 276, 275, 706, 705
603, 275, 274, 707, 706
604, 274,  33, 273, 707
605, 267, 703, 268,  27
606, 703, 704, 269, 268
607, 704, 705, 270, 269
608, 705, 706, 271, 270
609, 706, 707, 272, 271
610, 707, 273,  28, 272
*Element, type=CPE4R
611,   1,  50, 708,  57
612,  50,  49, 709, 708
613,  49,  48, 710, 709
614,  48,   4, 284, 710
615,  57, 708, 711,  58
616, 708, 709, 712, 711
617, 709, 710, 713, 712
618, 710, 284, 285, 713
619,  58, 711, 714,  59
620, 711, 712, 715, 714
621, 712, 713, 716, 715
622, 713, 285, 286, 716
623,  59, 714, 717,  60
624, 714, 715, 718, 717
625, 715, 716, 719, 718
626, 716, 286, 287, 719
627,  60, 717, 720,  61
628, 717, 718, 721, 720
629, 718, 719, 722, 721
630, 719, 287, 288, 722
631,  61, 720, 291,   7
632, 720, 721, 290, 291
633, 721, 722, 289, 290
634, 722, 288,  35, 289
635,   2,  40, 723, 292
636,  40,  39, 724, 723
637,  39,  38, 725, 724
638,  38,  37, 726, 725
639,  37,   1,  56, 726
640, 292, 723,  63,   8
641, 723, 724,  64,  63
642, 724, 725,  65,  64
643, 725, 726,  66,  65
644, 726,  56,   6,  66
645,  15, 123, 727,  99
646, 123, 122, 728, 727
647, 122, 121, 729, 728
648, 121,  21, 293, 729
649,  99, 727, 730, 100
650, 727, 728, 731, 730
651, 728, 729, 732, 731
652, 729, 293, 294, 732
653, 100, 730, 733, 101
654, 730, 731, 734, 733
655, 731, 732, 735, 734
656, 732, 294, 295, 735
657, 101, 733, 736, 102
658, 733, 734, 737, 736
659, 734, 735, 738, 737
660, 735, 295, 296, 738
661, 102, 736, 739, 103
662, 736, 737, 740, 739
663, 737, 738, 741, 740
664, 738, 296, 297, 741
665, 103, 739, 742, 104
666, 739, 740, 743, 742
667, 740, 741, 744, 743
668, 741, 297, 298, 744
669, 104, 742, 301,  16
670, 742, 743, 300, 301
671, 743, 744, 299, 300
672, 744, 298,  36, 299
673,   7, 291, 745, 140
674, 291, 290, 746, 745
675, 290, 289, 747, 746
676, 289,  35, 302, 747
677, 140, 745, 748, 141
678, 745, 746, 749, 748
679, 746, 747, 750, 749
680, 747, 302, 303, 750
681, 141, 748, 751, 142
682, 748, 749, 752, 751
683, 749, 750, 753, 752
684, 750, 303, 304, 753
685, 142, 751, 754, 143
686, 751, 752, 755, 754
687, 752, 753, 756, 755
688, 753, 304, 305, 756
689, 143, 754, 757, 144
690, 754, 755, 758, 757
691, 755, 756, 759, 758
692, 756, 305, 306, 759
693, 144, 757, 760, 145
694, 757, 758, 761, 760
695, 758, 759, 762, 761
696, 759, 306, 307, 762
697, 145, 760, 763, 146
698, 760, 761, 764, 763
699, 761, 762, 765, 764
700, 762, 307, 308, 765
701, 146, 763, 766, 147
702, 763, 764, 767, 766
703, 764, 765, 768, 767
704, 765, 308, 309, 768
705, 147, 766, 769, 148
706, 766, 767, 770, 769
707, 767, 768, 771, 770
708, 768, 309, 310, 771
709, 148, 769, 772, 149
710, 769, 770, 773, 772
711, 770, 771, 774, 773
712, 771, 310, 311, 774
713, 149, 772, 775, 150
714, 772, 773, 776, 775
715, 773, 774, 777, 776
716, 774, 311, 312, 777
717, 150, 775, 113,  19
718, 775, 776, 114, 113
719, 776, 777, 115, 114
720, 777, 312,  20, 115
*Nset, nset=elasticity
   1,   4,   5,   6,   7,   9,  12,  13,  15,  18,  19,  22,  23,  24,  25,  27
  28,  30,  33,  35,  48,  49,  50,  51,  52,  53,  54,  55,  56,  57,  58,  59
  60,  61,  62,  89,  90,  91, 112, 124, 125, 126, 127, 128, 151, 152, 153, 154
 155, 156, 164, 166, 167, 168, 169, 170, 171, 172, 173, 174, 175, 176, 177, 178
 192, 193, 194, 195, 196, 197, 198, 199, 200, 201, 202, 203, 215, 216, 217, 218
 219, 220, 221, 222, 267, 268, 269, 270, 271, 272, 273, 274, 275, 276, 277, 278
 284, 285, 286, 287, 288, 289, 290, 291, 325, 326, 327, 328, 329, 441, 442, 443
 444, 445, 446, 447, 448, 449, 450, 451, 452, 453, 454, 455, 498, 499, 500, 501
 502, 580, 581, 582, 583, 584, 642, 643, 644, 645, 646, 647, 648, 649, 650, 651
 652, 653, 654, 655, 656, 657, 658, 659, 660, 661, 662, 663, 664, 665, 666, 667
 668, 669, 670, 671, 672, 673, 674, 675, 676, 703, 704, 705, 706, 707, 708, 709
 710, 711, 712, 713, 714, 715, 716, 717, 718, 719, 720, 721, 722
*Elset, elset=elasticity
  21,  22,  23,  24,  25,  26,  27,  28,  29,  30,  31,  32, 213, 214, 215, 216
 217, 218, 219, 220, 221, 222, 223, 224, 225, 226, 227, 228, 229, 230, 231, 232
 233, 234, 235, 236, 293, 294, 295, 296, 297, 298, 299, 300, 301, 302, 303, 304
 401, 402, 403, 404, 405, 406, 407, 408, 409, 410, 411, 412, 503, 504, 505, 506
 507, 508, 509, 510, 511, 512, 513, 514, 515, 516, 517, 518, 519, 520, 521, 522
 523, 524, 525, 526, 527, 528, 529, 530, 531, 532, 533, 534, 535, 536, 537, 538
 539, 540, 541, 542, 543, 544, 545, 546, 547, 548, 549, 550, 599, 600, 601, 602
 603, 604, 605, 606, 607, 608, 609, 610, 611, 612, 613, 614, 615, 616, 617, 618
 619, 620, 621, 622, 623, 624, 625, 626, 627, 628, 629, 630, 631, 632, 633, 634
*Nset, nset=plasticity
   1,   2,   3,   4,   5,   6,   7,   8,   9,  10,  11,  12,  13,  14,  15,  16
  17,  18,  19,  20,  21,  22,  23,  24,  25,  26,  27,  28,  29,  30,  31,  32
  33,  34,  35,  36,  37,  38,  39,  40,  41,  42,  43,  44,  45,  46,  47,  48
  49,  50,  51,  52,  53,  54,  55,  56,  62,  63,  64,  65,  66,  67,  68,  69
  70,  71,  72,  73,  74,  75,  76,  77,  78,  79,  80,  81,  82,  83,  84,  85
  86,  87,  88,  89,  90,  91,  92,  93,  94,  95,  96,  97,  98,  99, 100, 101
 102, 103, 104, 105, 106, 107, 108, 109, 110, 111, 112, 113, 114, 115, 116, 117
 118, 119, 120, 121, 122, 123, 124, 125, 126, 127, 128, 129, 130, 131, 132, 133
 134, 135, 136, 137, 138, 139, 140, 141, 142, 143, 144, 145, 146, 147, 148, 149
 150, 151, 152, 153, 154, 155, 156, 157, 158, 159, 160, 161, 162, 163, 164, 165
 171, 172, 173, 179, 180, 181, 182, 183, 184, 185, 186, 187, 188, 189, 190, 191
 192, 193, 194, 195, 196, 197, 198, 204, 205, 206, 207, 208, 209, 210, 211, 212
 213, 214, 215, 216, 217, 218, 219, 220, 221, 222, 223, 224, 225, 226, 227, 228
 229, 230, 231, 232, 233, 234, 235, 236, 237, 238, 239, 240, 241, 242, 243, 244
 245, 246, 247, 248, 249, 250, 251, 252, 253, 254, 255, 256, 257, 258, 259, 260
 261, 262, 263, 264, 265, 266, 267, 273, 274, 275, 276, 277, 278, 279, 280, 281
 282, 283, 289, 290, 291, 292, 293, 294, 295, 296, 297, 298, 299, 300, 301, 302
 303, 304, 305, 306, 307, 308, 309, 310, 311, 312, 313, 314, 315, 316, 317, 318
 319, 320, 321, 322, 323, 324, 330, 331, 332, 333, 334, 335, 336, 337, 338, 339
 340, 341, 342, 343, 344, 345, 346, 347, 348, 349, 350, 351, 352, 353, 354, 355
 356, 357, 358, 359, 360, 361, 362, 363, 364, 365, 366, 367, 368, 369, 370, 371
 372, 373, 374, 375, 376, 377, 378, 379, 380, 381, 382, 383, 384, 385, 386, 387
 388, 389, 390, 391, 392, 393, 394, 395, 396, 397, 398, 399, 400, 401, 402, 403
 404, 405, 406, 407, 408, 409, 410, 411, 412, 413, 414, 415, 416, 417, 418, 419
 420, 421, 422, 423, 424, 425, 426, 427, 428, 429, 430, 431, 432, 433, 434, 435
 436, 437, 438, 439, 440, 456, 457, 458, 459, 460, 461, 462, 463, 464, 465, 466
 467, 468, 469, 470, 471, 472, 473, 474, 475, 476, 477, 478, 479, 480, 481, 482
 483, 484, 485, 486, 487, 488, 489, 490, 491, 492, 493, 494, 495, 496, 497, 503
 504, 505, 506, 507, 508, 509, 510, 511, 512, 513, 514, 515, 516, 517, 518, 519
 520, 521, 522, 523, 524, 525, 526, 527, 528, 529, 530, 531, 532, 533, 534, 535
 536, 537, 538, 539, 540, 541, 542, 543, 544, 545, 546, 547, 548, 549, 550, 551
 552, 553, 554, 555, 556, 557, 558, 559, 560, 561, 562, 563, 564, 565, 566, 567
 568, 569, 570, 571, 572, 573, 574, 575, 576, 577, 578, 579, 585, 586, 587, 588
 589, 590, 591, 592, 593, 594, 595, 596, 597, 598, 599, 600, 601, 602, 603, 604
 605, 606, 607, 608, 609, 610, 611, 612, 613, 614, 615, 616, 617, 618, 619, 620
 621, 622, 623, 624, 625, 626, 627, 628, 629, 630, 631, 632, 633, 634, 635, 636
 637, 638, 639, 640, 641, 677, 678, 679, 680, 681, 682, 683, 684, 685, 686, 687
 688, 689, 690, 691, 692, 693, 694, 695, 696, 697, 698, 699, 700, 701, 702, 723
 724, 725, 726, 727, 728, 729, 730, 731, 732, 733, 734, 735, 736, 737, 738, 739
 740, 741, 742, 743, 744, 745, 746, 747, 748, 749, 750, 751, 752, 753, 754, 755
 756, 757, 758, 759, 760, 761, 762, 763, 764, 765, 766, 767, 768, 769, 770, 771
 772, 773, 774, 775, 776, 777
*Elset, elset=plasticity
   1,   2,   3,   4,   5,   6,   7,   8,   9,  10,  11,  12,  13,  14,  15,  16
  17,  18,  19,  20,  33,  34,  35,  36,  37,  38,  39,  40,  41,  42,  43,  44
  45,  46,  47,  48,  49,  50,  51,  52,  53,  54,  55,  56,  57,  58,  59,  60
  61,  62,  63,  64,  65,  66,  67,  68,  69,  70,  71,  72,  73,  74,  75,  76
  77,  78,  79,  80,  81,  82,  83,  84,  85,  86,  87,  88,  89,  90,  91,  92
  93,  94,  95,  96,  97,  98,  99, 100, 101, 102, 103, 104, 105, 106, 107, 108
 109, 110, 111, 112, 113, 114, 115, 116, 117, 118, 119, 120, 121, 122, 123, 124
 125, 126, 127, 128, 129, 130, 131, 132, 133, 134, 135, 136, 137, 138, 139, 140
 141, 142, 143, 144, 145, 146, 147, 148, 149, 150, 151, 152, 153, 154, 155, 156
 157, 158, 159, 160, 161, 162, 163, 164, 165, 166, 167, 168, 169, 170, 171, 172
 173, 174, 175, 176, 177, 178, 179, 180, 181, 182, 183, 184, 185, 186, 187, 188
 189, 190, 191, 192, 193, 194, 195, 196, 197, 198, 199, 200, 201, 202, 203, 204
 205, 206, 207, 208, 209, 210, 211, 212, 237, 238, 239, 240, 241, 242, 243, 244
 245, 246, 247, 248, 249, 250, 251, 252, 253, 254, 255, 256, 257, 258, 259, 260
 261, 262, 263, 264, 265, 266, 267, 268, 269, 270, 271, 272, 273, 274, 275, 276
 277, 278, 279, 280, 281, 282, 283, 284, 285, 286, 287, 288, 289, 290, 291, 292
 305, 306, 307, 308, 309, 310, 311, 312, 313, 314, 315, 316, 317, 318, 319, 320
 321, 322, 323, 324, 325, 326, 327, 328, 329, 330, 331, 332, 333, 334, 335, 336
 337, 338, 339, 340, 341, 342, 343, 344, 345, 346, 347, 348, 349, 350, 351, 352
 353, 354, 355, 356, 357, 358, 359, 360, 361, 362, 363, 364, 365, 366, 367, 368
 369, 370, 371, 372, 373, 374, 375, 376, 377, 378, 379, 380, 381, 382, 383, 384
 385, 386, 387, 388, 389, 390, 391, 392, 393, 394, 395, 396, 397, 398, 399, 400
 413, 414, 415, 416, 417, 418, 419, 420, 421, 422, 423, 424, 425, 426, 427, 428
 429, 430, 431, 432, 433, 434, 435, 436, 437, 438, 439, 440, 441, 442, 443, 444
 445, 446, 447, 448, 449, 450, 451, 452, 453, 454, 455, 456, 457, 458, 459, 460
 461, 462, 463, 464, 465, 466, 467, 468, 469, 470, 471, 472, 473, 474, 475, 476
 477, 478, 479, 480, 481, 482, 483, 484, 485, 486, 487, 488, 489, 490, 491, 492
 493, 494, 495, 496, 497, 498, 499, 500, 501, 502, 551, 552, 553, 554, 555, 556
 557, 558, 559, 560, 561, 562, 563, 564, 565, 566, 567, 568, 569, 570, 571, 572
 573, 574, 575, 576, 577, 578, 579, 580, 581, 582, 583, 584, 585, 586, 587, 588
 589, 590, 591, 592, 593, 594, 595, 596, 597, 598, 635, 636, 637, 638, 639, 640
 641, 642, 643, 644, 645, 646, 647, 648, 649, 650, 651, 652, 653, 654, 655, 656
 657, 658, 659, 660, 661, 662, 663, 664, 665, 666, 667, 668, 669, 670, 671, 672
 673, 674, 675, 676, 677, 678, 679, 680, 681, 682, 683, 684, 685, 686, 687, 688
 689, 690, 691, 692, 693, 694, 695, 696, 697, 698, 699, 700, 701, 702, 703, 704
 705, 706, 707, 708, 709, 710, 711, 712, 713, 714, 715, 716, 717, 718, 719, 720
*Nset, nset=bottom
   3,   4,  20,  21,  35,  36,  44,  45,  46,  47, 116, 117, 118, 119, 120, 284
 285, 286, 287, 288, 293, 294, 295, 296, 297, 298, 302, 303, 304, 305, 306, 307
 308, 309, 310, 311, 312
*Nset, nset=left
   2,   3,   8,  10,  11,  14,  41,  42,  43,  78,  79,  80,  81,  82,  83,  84
  96,  97,  98, 165, 292
*Nset, nset=right
  16,  17,  26,  31,  32,  36, 105, 179, 180, 181, 182, 183, 184, 185, 232, 233
 234, 266, 299, 300, 301
*Nset, nset=top
  13,  14,  25,  29,  32,  34,  92,  93,  94,  95, 174, 175, 176, 177, 178, 235
 236, 237, 238, 239, 240, 255, 256, 257, 258, 259, 260, 261, 262, 263, 264, 265
 279, 280, 281, 282, 283
*End Part
**  
**
** ASSEMBLY
**
*Assembly, name=Assembly
**  
*Instance, name=Part-1-1, part=Part-1
*End Instance
**  
*End Assembly
** 
** MATERIALS
** 
*Material, name=al
*Material, name=sic
