*Heading
** Job name: c1m1_H0002 Model name: C1M1_H0002
** Generated by: Abaqus/CAE 2020
*Preprint, echo=NO, model=NO, history=NO, contact=NO
** ----------------------------------------------------------------
** 
** PART INSTANCE: C1M1-1
** 
*Node
      1,           0., 0.00141499995,           0.
      2, 0.000415999995, 0.00141499995,           0.
      3, 0.000415999995, 0.00158399995,           0.
      4,           0., 0.00158399995,           0.
      5, 0.00131600001, 0.00158399995,           0.
      6, 0.00131600001, 0.00200000009,           0.
      7, 0.000415999995, 0.00200000009,           0.
      8,           0., 0.000584000023,           0.
      9, 0.000415999995, 0.000584000023,           0.
     10, 0.00131600001, 0.00141499995,           0.
     11, 0.00214800006, 0.00158399995,           0.
     12, 0.00214800006, 0.00200000009,           0.
     13,           0., 0.000415999995,           0.
     14, 0.000415999995, 0.000415999995,           0.
     15, 0.00131600001, 0.000584000023,           0.
     16, 0.00131600001,           0.,           0.
     17, 0.00131600001, 0.000415999995,           0.
     18, 0.000415999995,           0.,           0.
     19, 0.00214800006, 0.00141499995,           0.
     20, 0.00304799993, 0.00158399995,           0.
     21, 0.00304799993, 0.00200000009,           0.
     22, 0.00304799993, 0.00141499995,           0.
     23, 0.00346400007, 0.00141499995,           0.
     24, 0.00346400007, 0.00158399995,           0.
     25, 0.00214800006,           0.,           0.
     26, 0.00214800006, 0.000415999995,           0.
     27, 0.00304799993, 0.000584000023,           0.
     28, 0.00346400007, 0.000584000023,           0.
     29, 0.00304799993,           0.,           0.
     30, 0.00304799993, 0.000415999995,           0.
     31, 0.00214800006, 0.000584000023,           0.
     32, 0.00346400007, 0.000415999995,           0.
     33,           0., 0.00200000009,           0.
     34, 0.00346400007, 0.00200000009,           0.
     35, 0.00346400007,           0.,           0.
     36,           0.,           0.,           0.
     37, 0.000103999999, 0.00141499995,           0.
     38, 0.000207999998, 0.00141499995,           0.
     39, 0.000311999989, 0.00141499995,           0.
     40, 0.000415999995, 0.00149950001,           0.
     41, 0.000311999989, 0.00158399995,           0.
     42, 0.000207999998, 0.00158399995,           0.
     43, 0.000103999999, 0.00158399995,           0.
     44,           0., 0.00149950001,           0.
     45, 0.00131600001, 0.00168800005,           0.
     46, 0.00131600001, 0.00179200002,           0.
     47, 0.00131600001, 0.00189600012,           0.
     48, 0.00121599995, 0.00200000009,           0.
     49,     0.001116, 0.00200000009,           0.
     50, 0.00101599994, 0.00200000009,           0.
     51, 0.00091599999, 0.00200000009,           0.
     52, 0.000815999985, 0.00200000009,           0.
     53, 0.000716000039, 0.00200000009,           0.
     54, 0.000615999976, 0.00200000009,           0.
     55, 0.000516000029, 0.00200000009,           0.
     56, 0.000415999995,     0.001896,           0.
     57, 0.000415999995, 0.00179200002,           0.
     58, 0.000415999995, 0.00168800005,           0.
     59, 0.000515999971, 0.00158399995,           0.
     60, 0.000615999976, 0.00158399995,           0.
     61, 0.00071599998, 0.00158399995,           0.
     62, 0.000815999985, 0.00158399995,           0.
     63, 0.00091599999, 0.00158399995,           0.
     64, 0.00101600005, 0.00158399995,           0.
     65,     0.001116, 0.00158399995,           0.
     66, 0.00121599995, 0.00158399995,           0.
     67, 0.000103999999, 0.000584000023,           0.
     68, 0.000207999998, 0.000584000023,           0.
     69, 0.000311999989, 0.000584000023,           0.
     70, 0.000415999995, 0.000687875028,           0.
     71, 0.000415999995, 0.000791749975,           0.
     72, 0.000415999995, 0.00089562498,           0.
     73, 0.000415999995, 0.000999500044,           0.
     74, 0.000415999995, 0.00110337511,           0.
     75, 0.000415999995, 0.00120725005,           0.
     76, 0.000415999995,  0.001311125,           0.
     77,           0., 0.00131112488,           0.
     78,           0., 0.00120725005,           0.
     79,           0., 0.00110337511,           0.
     80,           0., 0.000999500044,           0.
     81,           0., 0.00089562498,           0.
     82,           0., 0.000791749975,           0.
     83,           0., 0.000687875028,           0.
     84, 0.000515999971, 0.00141499995,           0.
     85, 0.000615999976, 0.00141499995,           0.
     86, 0.00071599998, 0.00141499995,           0.
     87, 0.000815999985, 0.00141499995,           0.
     88, 0.00091599999, 0.00141499995,           0.
     89, 0.00101600005, 0.00141499995,           0.
     90,     0.001116, 0.00141499995,           0.
     91, 0.00121599995, 0.00141499995,           0.
     92, 0.00131600001, 0.00149950001,           0.
     93, 0.00214800006, 0.00168800005,           0.
     94, 0.00214800006, 0.00179200002,           0.
     95, 0.00214800006, 0.00189600012,           0.
     96, 0.00204399996, 0.00200000009,           0.
     97, 0.00193999999, 0.00200000009,           0.
     98, 0.00183600001, 0.00200000009,           0.
     99, 0.00173200015, 0.00200000009,           0.
    100, 0.00162799994, 0.00200000009,           0.
    101, 0.00152399996, 0.00200000009,           0.
    102, 0.00141999999, 0.00200000009,           0.
    103, 0.00141999999, 0.00158399995,           0.
    104, 0.00152400008, 0.00158399995,           0.
    105, 0.00162800006, 0.00158399995,           0.
    106, 0.00173200015, 0.00158399995,           0.
    107, 0.00183600001, 0.00158399995,           0.
    108, 0.00193999999, 0.00158399995,           0.
    109, 0.00204399996, 0.00158399995,           0.
    110,           0., 0.000500000024,           0.
    111, 0.000103999999, 0.000415999995,           0.
    112, 0.000207999998, 0.000415999995,           0.
    113, 0.000311999989, 0.000415999995,           0.
    114, 0.000415999995, 0.000500000024,           0.
    115, 0.000515999971, 0.000584000023,           0.
    116, 0.000615999976, 0.000584000023,           0.
    117, 0.00071599998, 0.000584000023,           0.
    118, 0.000815999985, 0.000584000023,           0.
    119, 0.00091599999, 0.000584000023,           0.
    120, 0.00101600005, 0.000584000023,           0.
    121,     0.001116, 0.000584000023,           0.
    122, 0.00121599995, 0.000584000023,           0.
    123, 0.00131600001, 0.000687875028,           0.
    124, 0.00131600001, 0.000791749975,           0.
    125, 0.00131600001, 0.00089562498,           0.
    126, 0.00131600001, 0.000999500044,           0.
    127, 0.00131600001, 0.00110337499,           0.
    128, 0.00131600001, 0.00120725005,           0.
    129, 0.00131600001,  0.001311125,           0.
    130, 0.00131600001, 0.000103999999,           0.
    131, 0.00131600001, 0.000207999998,           0.
    132, 0.00131600001, 0.000311999989,           0.
    133, 0.00121599995, 0.000415999995,           0.
    134,     0.001116, 0.000415999995,           0.
    135, 0.00101600005, 0.000415999995,           0.
    136, 0.00091599999, 0.000415999995,           0.
    137, 0.000815999985, 0.000415999995,           0.
    138, 0.00071599998, 0.000415999995,           0.
    139, 0.000615999976, 0.000415999995,           0.
    140, 0.000515999971, 0.000415999995,           0.
    141, 0.000415999995, 0.000311999989,           0.
    142, 0.000415999995, 0.000207999998,           0.
    143, 0.000415999995, 0.000103999999,           0.
    144, 0.000516000029,           0.,           0.
    145, 0.000615999976,           0.,           0.
    146, 0.000716000039,           0.,           0.
    147, 0.000815999985,           0.,           0.
    148, 0.00091599999,           0.,           0.
    149, 0.00101599994,           0.,           0.
    150,     0.001116,           0.,           0.
    151, 0.00121599995,           0.,           0.
    152, 0.00214800006, 0.00149950001,           0.
    153, 0.00141999999, 0.00141499995,           0.
    154, 0.00152399996, 0.00141499995,           0.
    155, 0.00162800006, 0.00141499995,           0.
    156, 0.00173200003, 0.00141499995,           0.
    157, 0.00183600001, 0.00141499995,           0.
    158, 0.00193999999, 0.00141499995,           0.
    159, 0.00204399996, 0.00141499995,           0.
    160, 0.00224799989, 0.00158399995,           0.
    161, 0.00234799995, 0.00158399995,           0.
    162, 0.00244800001, 0.00158399995,           0.
    163, 0.00254799984, 0.00158399995,           0.
    164, 0.00264799967, 0.00158399995,           0.
    165, 0.00274799997, 0.00158399995,           0.
    166, 0.00284800003, 0.00158399995,           0.
    167, 0.0029480001, 0.00158399995,           0.
    168, 0.00304799993, 0.00168800005,           0.
    169, 0.00304799993, 0.00179200002,           0.
    170, 0.00304799993,     0.001896,           0.
    171, 0.0029480001, 0.00200000009,           0.
    172, 0.00284800003, 0.00200000009,           0.
    173, 0.0027480002, 0.00200000009,           0.
    174, 0.00264799991, 0.00200000009,           0.
    175, 0.00254799984, 0.00200000009,           0.
    176, 0.00244800001, 0.00200000009,           0.
    177, 0.00234799995, 0.00200000009,           0.
    178, 0.00224800012, 0.00200000009,           0.
    179, 0.00315199979, 0.00141499995,           0.
    180, 0.00325600011, 0.00141499995,           0.
    181, 0.00335999997, 0.00141499995,           0.
    182, 0.00346400007, 0.00149950001,           0.
    183, 0.00335999997, 0.00158399995,           0.
    184, 0.00325600011, 0.00158399995,           0.
    185, 0.00315200002, 0.00158399995,           0.
    186, 0.00304799993, 0.00149950001,           0.
    187, 0.00214800006, 0.000103999999,           0.
    188, 0.00214800006, 0.000207999998,           0.
    189, 0.00214800006, 0.000311999989,           0.
    190, 0.00204399996, 0.000415999995,           0.
    191, 0.00193999999, 0.000415999995,           0.
    192, 0.00183600001, 0.000415999995,           0.
    193, 0.00173200015, 0.000415999995,           0.
    194, 0.00162800006, 0.000415999995,           0.
    195, 0.00152399996, 0.000415999995,           0.
    196, 0.00141999999, 0.000415999995,           0.
    197, 0.00141999999,           0.,           0.
    198, 0.00152399996,           0.,           0.
    199, 0.00162799994,           0.,           0.
    200, 0.00173200003,           0.,           0.
    201, 0.00183600001,           0.,           0.
    202, 0.00193999999,           0.,           0.
    203, 0.00204399996,           0.,           0.
    204, 0.00131600001, 0.000500000024,           0.
    205, 0.00224799989, 0.00141499995,           0.
    206, 0.00234799995, 0.00141499995,           0.
    207, 0.00244800001, 0.00141499995,           0.
    208, 0.00254799984, 0.00141499995,           0.
    209, 0.00264799991, 0.00141499995,           0.
    210, 0.00274799997, 0.00141499995,           0.
    211, 0.00284800003, 0.00141499995,           0.
    212, 0.0029480001, 0.00141499995,           0.
    213, 0.00315199979, 0.000584000023,           0.
    214, 0.00325600011, 0.000584000023,           0.
    215, 0.00335999997, 0.000584000023,           0.
    216, 0.00346400007, 0.000687875028,           0.
    217, 0.00346400007, 0.000791749975,           0.
    218, 0.00346400007, 0.00089562498,           0.
    219, 0.00346400007, 0.000999500044,           0.
    220, 0.00346400007, 0.00110337511,           0.
    221, 0.00346400007, 0.00120725005,           0.
    222, 0.00346400007, 0.00131112488,           0.
    223, 0.00304799993,  0.001311125,           0.
    224, 0.00304799993, 0.00120725005,           0.
    225, 0.00304799993, 0.00110337511,           0.
    226, 0.00304799993, 0.000999500044,           0.
    227, 0.00304799993, 0.00089562498,           0.
    228, 0.00304799993, 0.000791749975,           0.
    229, 0.00304799993, 0.000687875028,           0.
    230, 0.00224800012,           0.,           0.
    231, 0.00234799995,           0.,           0.
    232, 0.00244800001,           0.,           0.
    233, 0.00254799984,           0.,           0.
    234, 0.00264799967,           0.,           0.
    235, 0.00274799974,           0.,           0.
    236, 0.00284800003,           0.,           0.
    237, 0.0029480001,           0.,           0.
    238, 0.00304799993, 0.000103999999,           0.
    239, 0.00304799993, 0.000207999998,           0.
    240, 0.00304799993, 0.000311999989,           0.
    241, 0.0029480001, 0.000415999995,           0.
    242, 0.00284800003, 0.000415999995,           0.
    243, 0.00274799997, 0.000415999995,           0.
    244, 0.00264799967, 0.000415999995,           0.
    245, 0.00254799984, 0.000415999995,           0.
    246, 0.00244800001, 0.000415999995,           0.
    247, 0.00234799995, 0.000415999995,           0.
    248, 0.00224799989, 0.000415999995,           0.
    249, 0.00214800006, 0.000500000024,           0.
    250, 0.00204399996, 0.000584000023,           0.
    251, 0.00193999999, 0.000584000023,           0.
    252, 0.00183600001, 0.000584000023,           0.
    253, 0.00173200003, 0.000584000023,           0.
    254, 0.00162800006, 0.000584000023,           0.
    255, 0.00152399996, 0.000584000023,           0.
    256, 0.00141999999, 0.000584000023,           0.
    257, 0.00224799989, 0.000584000023,           0.
    258, 0.00234799995, 0.000584000023,           0.
    259, 0.00244800001, 0.000584000023,           0.
    260, 0.00254799984, 0.000584000023,           0.
    261, 0.00264799967, 0.000584000023,           0.
    262, 0.00274799997, 0.000584000023,           0.
    263, 0.00284800003, 0.000584000023,           0.
    264, 0.0029480001, 0.000584000023,           0.
    265, 0.00214800006,  0.001311125,           0.
    266, 0.00214800006, 0.00120725005,           0.
    267, 0.00214800006, 0.00110337499,           0.
    268, 0.00214800006, 0.000999500044,           0.
    269, 0.00214800006, 0.00089562498,           0.
    270, 0.00214800006, 0.000791749975,           0.
    271, 0.00214800006, 0.000687875028,           0.
    272, 0.00304799993, 0.000500000024,           0.
    273, 0.00315200002, 0.000415999995,           0.
    274, 0.00325600011, 0.000415999995,           0.
    275, 0.00335999997, 0.000415999995,           0.
    276, 0.00346400007, 0.000500000024,           0.
    277, 0.000311999989, 0.00200000009,           0.
    278, 0.000207999998, 0.00200000009,           0.
    279, 0.000103999999, 0.00200000009,           0.
    280,           0., 0.00189600012,           0.
    281,           0., 0.00179200002,           0.
    282,           0., 0.00168800005,           0.
    283, 0.00346400007, 0.00168800005,           0.
    284, 0.00346400007, 0.00179200002,           0.
    285, 0.00346400007, 0.00189600012,           0.
    286, 0.00335999997, 0.00200000009,           0.
    287, 0.00325600011, 0.00200000009,           0.
    288, 0.00315200002, 0.00200000009,           0.
    289, 0.00315199979,           0.,           0.
    290, 0.00325600011,           0.,           0.
    291, 0.00335999997,           0.,           0.
    292, 0.00346400007, 0.000103999999,           0.
    293, 0.00346400007, 0.000207999998,           0.
    294, 0.00346400007, 0.000311999989,           0.
    295,           0., 0.000311999989,           0.
    296,           0., 0.000207999998,           0.
    297,           0., 0.000103999999,           0.
    298, 0.000103999999,           0.,           0.
    299, 0.000207999998,           0.,           0.
    300, 0.000311999989,           0.,           0.
    301, 0.000103999999, 0.00149950001,           0.
    302, 0.000207999998, 0.00149950001,           0.
    303, 0.000311999989, 0.00149950001,           0.
    304, 0.00121599995, 0.00168800005,           0.
    305, 0.00121599995, 0.00179200002,           0.
    306, 0.00121599995, 0.00189600012,           0.
    307, 0.00111600012, 0.00168800005,           0.
    308, 0.00111600012, 0.00179200002,           0.
    309, 0.00111600012, 0.00189600012,           0.
    310, 0.00101600005, 0.00168800005,           0.
    311, 0.00101600005, 0.00179200002,           0.
    312, 0.00101600005, 0.00189600012,           0.
    313, 0.00091599999, 0.00168800005,           0.
    314, 0.00091599999, 0.00179200002,           0.
    315, 0.00091599999, 0.00189600012,           0.
    316, 0.000815999927, 0.00168800005,           0.
    317, 0.000815999927, 0.00179200002,           0.
    318, 0.000815999927, 0.00189600012,           0.
    319, 0.00071599998, 0.00168800005,           0.
    320, 0.00071599998, 0.00179200002,           0.
    321, 0.00071599998, 0.00189600012,           0.
    322, 0.000615999976, 0.00168800005,           0.
    323, 0.000615999976, 0.00179200002,           0.
    324, 0.000615999976, 0.00189600012,           0.
    325, 0.000515999971, 0.00168800005,           0.
    326, 0.000515999971, 0.00179200002,           0.
    327, 0.000515999971, 0.00189600012,           0.
    328, 0.000103999999, 0.000687875028,           0.
    329, 0.000207999998, 0.000687875028,           0.
    330, 0.000311999989, 0.000687875028,           0.
    331, 0.000103999999, 0.000791749975,           0.
    332, 0.000207999998, 0.000791749975,           0.
    333, 0.000311999989, 0.000791749975,           0.
    334, 0.000103999999, 0.00089562498,           0.
    335, 0.000207999998, 0.00089562498,           0.
    336, 0.000311999989, 0.00089562498,           0.
    337, 0.000103999999, 0.000999500044,           0.
    338, 0.000207999998, 0.000999500044,           0.
    339, 0.000311999989, 0.000999500044,           0.
    340, 0.000103999999, 0.00110337511,           0.
    341, 0.000207999998, 0.00110337511,           0.
    342, 0.000311999989, 0.00110337511,           0.
    343, 0.000103999999, 0.00120725017,           0.
    344, 0.000207999998, 0.00120725017,           0.
    345, 0.000311999989, 0.00120725017,           0.
    346, 0.000103999999,  0.001311125,           0.
    347, 0.000207999998,  0.001311125,           0.
    348, 0.000311999989,  0.001311125,           0.
    349, 0.000515999971, 0.00149950001,           0.
    350, 0.000616000034, 0.00149950001,           0.
    351, 0.00071599998, 0.00149950001,           0.
    352, 0.000815999985, 0.00149950001,           0.
    353, 0.00091599999, 0.00149950001,           0.
    354, 0.00101600005, 0.00149950001,           0.
    355,     0.001116, 0.00149950001,           0.
    356, 0.00121599995, 0.00149950001,           0.
    357, 0.00204399996, 0.00168800005,           0.
    358, 0.00204399996, 0.00179200002,           0.
    359, 0.00204399996, 0.00189600012,           0.
    360, 0.00193999999, 0.00168800005,           0.
    361, 0.00193999999, 0.00179200002,           0.
    362, 0.00193999999, 0.00189600012,           0.
    363, 0.00183600001, 0.00168800005,           0.
    364, 0.00183600001, 0.00179200002,           0.
    365, 0.00183600001, 0.00189600012,           0.
    366, 0.00173200015, 0.00168800005,           0.
    367, 0.00173200015, 0.00179200002,           0.
    368, 0.00173200015, 0.00189600012,           0.
    369, 0.00162800006, 0.00168800005,           0.
    370, 0.00162800006, 0.00179200002,           0.
    371, 0.00162800006, 0.00189600012,           0.
    372, 0.00152400008, 0.00168800005,           0.
    373, 0.00152400008, 0.00179200002,           0.
    374, 0.00152400008, 0.00189600012,           0.
    375, 0.0014200001, 0.00168800005,           0.
    376, 0.0014200001, 0.00179200002,           0.
    377, 0.0014200001, 0.00189600012,           0.
    378, 0.000311999989, 0.000500000024,           0.
    379, 0.000207999998, 0.000500000024,           0.
    380, 0.000103999999, 0.000500000024,           0.
    381, 0.000515999971, 0.000687875028,           0.
    382, 0.000615999976, 0.000687875028,           0.
    383, 0.00071599998, 0.000687875028,           0.
    384, 0.000815999985, 0.000687875028,           0.
    385, 0.00091599999, 0.000687875028,           0.
    386, 0.00101600005, 0.000687875028,           0.
    387,     0.001116, 0.000687875028,           0.
    388, 0.00121599995, 0.000687875028,           0.
    389, 0.000515999971, 0.000791749975,           0.
    390, 0.000615999976, 0.000791749975,           0.
    391, 0.00071599998, 0.000791749975,           0.
    392, 0.000815999985, 0.000791749975,           0.
    393, 0.00091599999, 0.000791749975,           0.
    394, 0.00101600005, 0.000791749975,           0.
    395,     0.001116, 0.000791749975,           0.
    396, 0.00121599995, 0.000791749975,           0.
    397, 0.000515999971, 0.00089562498,           0.
    398, 0.000615999976, 0.00089562498,           0.
    399, 0.00071599998, 0.00089562498,           0.
    400, 0.000815999985, 0.00089562498,           0.
    401, 0.00091599999, 0.00089562498,           0.
    402, 0.00101600005, 0.00089562498,           0.
    403,     0.001116, 0.00089562498,           0.
    404, 0.00121599995, 0.00089562498,           0.
    405, 0.000515999971, 0.000999500044,           0.
    406, 0.000615999976, 0.000999500044,           0.
    407, 0.00071599998, 0.000999500044,           0.
    408, 0.000815999985, 0.000999500044,           0.
    409, 0.00091599999, 0.000999500044,           0.
    410, 0.00101600005, 0.000999500044,           0.
    411,     0.001116, 0.000999500044,           0.
    412, 0.00121599995, 0.000999500044,           0.
    413, 0.000515999971, 0.00110337511,           0.
    414, 0.000615999976, 0.00110337511,           0.
    415, 0.00071599998, 0.00110337511,           0.
    416, 0.000815999985, 0.00110337511,           0.
    417, 0.00091599999, 0.00110337511,           0.
    418, 0.00101600005, 0.00110337511,           0.
    419,     0.001116, 0.00110337511,           0.
    420, 0.00121599995, 0.00110337511,           0.
    421, 0.000515999971, 0.00120725017,           0.
    422, 0.000615999976, 0.00120725017,           0.
    423, 0.00071599998, 0.00120725017,           0.
    424, 0.000815999985, 0.00120725017,           0.
    425, 0.00091599999, 0.00120725017,           0.
    426, 0.00101600005, 0.00120725017,           0.
    427,     0.001116, 0.00120725017,           0.
    428, 0.00121599995, 0.00120725017,           0.
    429, 0.000515999971,  0.001311125,           0.
    430, 0.000615999976,  0.001311125,           0.
    431, 0.00071599998,  0.001311125,           0.
    432, 0.000815999985,  0.001311125,           0.
    433, 0.00091599999,  0.001311125,           0.
    434, 0.00101600005,  0.001311125,           0.
    435,     0.001116,  0.001311125,           0.
    436, 0.00121599995,  0.001311125,           0.
    437, 0.00121599995, 0.000103999999,           0.
    438, 0.00121599995, 0.000207999998,           0.
    439, 0.00121599995, 0.000311999989,           0.
    440, 0.00111600012, 0.000103999999,           0.
    441, 0.00111600012, 0.000207999998,           0.
    442, 0.00111600012, 0.000311999989,           0.
    443, 0.00101600005, 0.000103999999,           0.
    444, 0.00101600005, 0.000207999998,           0.
    445, 0.00101600005, 0.000311999989,           0.
    446, 0.00091599999, 0.000103999999,           0.
    447, 0.00091599999, 0.000207999998,           0.
    448, 0.00091599999, 0.000311999989,           0.
    449, 0.000815999927, 0.000103999999,           0.
    450, 0.000815999927, 0.000207999998,           0.
    451, 0.000815999927, 0.000311999989,           0.
    452, 0.00071599998, 0.000103999999,           0.
    453, 0.00071599998, 0.000207999998,           0.
    454, 0.00071599998, 0.000311999989,           0.
    455, 0.000615999976, 0.000103999999,           0.
    456, 0.000615999976, 0.000207999998,           0.
    457, 0.000615999976, 0.000311999989,           0.
    458, 0.000515999971, 0.000103999999,           0.
    459, 0.000515999971, 0.000207999998,           0.
    460, 0.000515999971, 0.000311999989,           0.
    461, 0.00204399996, 0.00149950001,           0.
    462, 0.00193999999, 0.00149950001,           0.
    463, 0.00183600001, 0.00149950001,           0.
    464, 0.00173200015, 0.00149950001,           0.
    465, 0.00162800006, 0.00149950001,           0.
    466, 0.00152400008, 0.00149950001,           0.
    467, 0.0014200001, 0.00149950001,           0.
    468, 0.00224799989, 0.00189600012,           0.
    469, 0.00224799989, 0.00179200002,           0.
    470, 0.00224799989, 0.00168800005,           0.
    471, 0.00234799995, 0.00189600012,           0.
    472, 0.00234799995, 0.00179200002,           0.
    473, 0.00234799995, 0.00168800005,           0.
    474, 0.00244800001, 0.00189600012,           0.
    475, 0.00244800001, 0.00179200002,           0.
    476, 0.00244800001, 0.00168800005,           0.
    477, 0.00254799984, 0.00189600012,           0.
    478, 0.00254799984, 0.00179200002,           0.
    479, 0.00254799984, 0.00168800005,           0.
    480, 0.00264799967, 0.00189600012,           0.
    481, 0.00264799967, 0.00179200002,           0.
    482, 0.00264799967, 0.00168800005,           0.
    483, 0.0027480002, 0.00189600012,           0.
    484, 0.0027480002, 0.00179200002,           0.
    485, 0.0027480002, 0.00168800005,           0.
    486, 0.00284800003, 0.00189600012,           0.
    487, 0.00284800003, 0.00179200002,           0.
    488, 0.00284800003, 0.00168800005,           0.
    489, 0.0029480001, 0.00189600012,           0.
    490, 0.0029480001, 0.00179200002,           0.
    491, 0.0029480001, 0.00168800005,           0.
    492, 0.00315199979, 0.00149950001,           0.
    493, 0.00325600011, 0.00149950001,           0.
    494, 0.00335999997, 0.00149950001,           0.
    495, 0.00204399996, 0.000103999999,           0.
    496, 0.00204399996, 0.000207999998,           0.
    497, 0.00204399996, 0.000311999989,           0.
    498, 0.00193999999, 0.000103999999,           0.
    499, 0.00193999999, 0.000207999998,           0.
    500, 0.00193999999, 0.000311999989,           0.
    501, 0.00183600001, 0.000103999999,           0.
    502, 0.00183600001, 0.000207999998,           0.
    503, 0.00183600001, 0.000311999989,           0.
    504, 0.00173200015, 0.000103999999,           0.
    505, 0.00173200015, 0.000207999998,           0.
    506, 0.00173200015, 0.000311999989,           0.
    507, 0.00162799994, 0.000103999999,           0.
    508, 0.00162799994, 0.000207999998,           0.
    509, 0.00162799994, 0.000311999989,           0.
    510, 0.00152399996, 0.000103999999,           0.
    511, 0.00152399996, 0.000207999998,           0.
    512, 0.00152399996, 0.000311999989,           0.
    513, 0.0014200001, 0.000103999999,           0.
    514, 0.0014200001, 0.000207999998,           0.
    515, 0.0014200001, 0.000311999989,           0.
    516, 0.000515999971, 0.000500000024,           0.
    517, 0.000615999976, 0.000500000024,           0.
    518, 0.00071599998, 0.000500000024,           0.
    519, 0.000815999985, 0.000500000024,           0.
    520, 0.00091599999, 0.000500000024,           0.
    521, 0.00101600005, 0.000500000024,           0.
    522,     0.001116, 0.000500000024,           0.
    523, 0.00121599995, 0.000500000024,           0.
    524, 0.0029480001, 0.00149950001,           0.
    525, 0.00284800003, 0.00149950001,           0.
    526, 0.00274799997, 0.00149950001,           0.
    527, 0.00264799991, 0.00149950001,           0.
    528, 0.00254799984, 0.00149950001,           0.
    529, 0.00244800001, 0.00149950001,           0.
    530, 0.00234799995, 0.00149950001,           0.
    531, 0.00224799989, 0.00149950001,           0.
    532, 0.00315199979, 0.000687875028,           0.
    533, 0.00325600011, 0.000687875028,           0.
    534, 0.00335999997, 0.000687875028,           0.
    535, 0.00315199979, 0.000791749975,           0.
    536, 0.00325600011, 0.000791749975,           0.
    537, 0.00335999997, 0.000791749975,           0.
    538, 0.00315199979, 0.00089562498,           0.
    539, 0.00325600011, 0.00089562498,           0.
    540, 0.00335999997, 0.00089562498,           0.
    541, 0.00315199979, 0.000999500044,           0.
    542, 0.00325600011, 0.000999500044,           0.
    543, 0.00335999997, 0.000999500044,           0.
    544, 0.00315199979, 0.00110337511,           0.
    545, 0.00325600011, 0.00110337511,           0.
    546, 0.00335999997, 0.00110337511,           0.
    547, 0.00315199979, 0.00120725017,           0.
    548, 0.00325600011, 0.00120725017,           0.
    549, 0.00335999997, 0.00120725017,           0.
    550, 0.00315199979,  0.001311125,           0.
    551, 0.00325600011,  0.001311125,           0.
    552, 0.00335999997,  0.001311125,           0.
    553, 0.00224799989, 0.000311999989,           0.
    554, 0.00224799989, 0.000207999998,           0.
    555, 0.00224800012, 0.000103999999,           0.
    556, 0.00234799995, 0.000311999989,           0.
    557, 0.00234799995, 0.000207999998,           0.
    558, 0.00234799995, 0.000103999999,           0.
    559, 0.00244800001, 0.000311999989,           0.
    560, 0.00244800001, 0.000207999998,           0.
    561, 0.00244800001, 0.000103999999,           0.
    562, 0.00254799984, 0.000311999989,           0.
    563, 0.00254799984, 0.000207999998,           0.
    564, 0.00254799984, 0.000103999999,           0.
    565, 0.00264799967, 0.000311999989,           0.
    566, 0.00264799967, 0.000207999998,           0.
    567, 0.00264799967, 0.000103999999,           0.
    568, 0.00274799997, 0.000311999989,           0.
    569, 0.00274799997, 0.000207999998,           0.
    570, 0.00274799997, 0.000103999999,           0.
    571, 0.00284800003, 0.000311999989,           0.
    572, 0.00284800003, 0.000207999998,           0.
    573, 0.00284800003, 0.000103999999,           0.
    574, 0.0029480001, 0.000311999989,           0.
    575, 0.0029480001, 0.000207999998,           0.
    576, 0.0029480001, 0.000103999999,           0.
    577, 0.00204399996, 0.000500000024,           0.
    578, 0.00193999999, 0.000500000024,           0.
    579, 0.00183600001, 0.000500000024,           0.
    580, 0.00173200015, 0.000500000024,           0.
    581, 0.00162800006, 0.000500000024,           0.
    582, 0.00152400008, 0.000500000024,           0.
    583, 0.0014200001, 0.000500000024,           0.
    584, 0.00224799989, 0.000687875028,           0.
    585, 0.00234799995, 0.000687875028,           0.
    586, 0.00244800001, 0.000687875028,           0.
    587, 0.00254799984, 0.000687875028,           0.
    588, 0.00264799967, 0.000687875028,           0.
    589, 0.00274799997, 0.000687875028,           0.
    590, 0.00284800003, 0.000687875028,           0.
    591, 0.0029480001, 0.000687875028,           0.
    592, 0.00224799989, 0.000791749975,           0.
    593, 0.00234799995, 0.000791749975,           0.
    594, 0.00244800001, 0.000791749975,           0.
    595, 0.00254799984, 0.000791749975,           0.
    596, 0.00264799967, 0.000791749975,           0.
    597, 0.00274799997, 0.000791749975,           0.
    598, 0.00284800003, 0.000791749975,           0.
    599, 0.0029480001, 0.000791749975,           0.
    600, 0.00224799989, 0.00089562498,           0.
    601, 0.00234799995, 0.00089562498,           0.
    602, 0.00244800001, 0.00089562498,           0.
    603, 0.00254799984, 0.00089562498,           0.
    604, 0.00264799967, 0.00089562498,           0.
    605, 0.00274799997, 0.00089562498,           0.
    606, 0.00284800003, 0.00089562498,           0.
    607, 0.0029480001, 0.00089562498,           0.
    608, 0.00224799989, 0.000999500044,           0.
    609, 0.00234799995, 0.000999500044,           0.
    610, 0.00244800001, 0.000999500044,           0.
    611, 0.00254799984, 0.000999500044,           0.
    612, 0.00264799967, 0.000999500044,           0.
    613, 0.00274799997, 0.000999500044,           0.
    614, 0.00284800003, 0.000999500044,           0.
    615, 0.0029480001, 0.000999500044,           0.
    616, 0.00224799989, 0.00110337511,           0.
    617, 0.00234799995, 0.00110337511,           0.
    618, 0.00244800001, 0.00110337511,           0.
    619, 0.00254799984, 0.00110337511,           0.
    620, 0.00264799967, 0.00110337511,           0.
    621, 0.00274799997, 0.00110337511,           0.
    622, 0.00284800003, 0.00110337511,           0.
    623, 0.0029480001, 0.00110337511,           0.
    624, 0.00224799989, 0.00120725017,           0.
    625, 0.00234799995, 0.00120725017,           0.
    626, 0.00244800001, 0.00120725017,           0.
    627, 0.00254799984, 0.00120725017,           0.
    628, 0.00264799967, 0.00120725017,           0.
    629, 0.00274799997, 0.00120725017,           0.
    630, 0.00284800003, 0.00120725017,           0.
    631, 0.0029480001, 0.00120725017,           0.
    632, 0.00224799989,  0.001311125,           0.
    633, 0.00234799995,  0.001311125,           0.
    634, 0.00244800001,  0.001311125,           0.
    635, 0.00254799984,  0.001311125,           0.
    636, 0.00264799967,  0.001311125,           0.
    637, 0.00274799997,  0.001311125,           0.
    638, 0.00284800003,  0.001311125,           0.
    639, 0.0029480001,  0.001311125,           0.
    640, 0.00335999997, 0.000500000024,           0.
    641, 0.00325600011, 0.000500000024,           0.
    642, 0.00315199979, 0.000500000024,           0.
    643, 0.000311999989, 0.00168800005,           0.
    644, 0.000311999989, 0.00179200002,           0.
    645, 0.000311999989, 0.00189600012,           0.
    646, 0.000207999998, 0.00168800005,           0.
    647, 0.000207999998, 0.00179200002,           0.
    648, 0.000207999998, 0.00189600012,           0.
    649, 0.000103999999, 0.00168800005,           0.
    650, 0.000103999999, 0.00179200002,           0.
    651, 0.000103999999, 0.00189600012,           0.
    652, 0.000103999999, 0.00168800005,           0.
    653, 0.000207999998, 0.00168800005,           0.
    654, 0.000311999989, 0.00168800005,           0.
    655, 0.000103999999, 0.00179200002,           0.
    656, 0.000207999998, 0.00179200002,           0.
    657, 0.000311999989, 0.00179200002,           0.
    658, 0.000103999999,     0.001896,           0.
    659, 0.000207999998,     0.001896,           0.
    660, 0.000311999989,     0.001896,           0.
    661, 0.00335999997, 0.00168800005,           0.
    662, 0.00335999997, 0.00179200002,           0.
    663, 0.00335999997, 0.00189600012,           0.
    664, 0.00325600011, 0.00168800005,           0.
    665, 0.00325600011, 0.00179200002,           0.
    666, 0.00325600011, 0.00189600012,           0.
    667, 0.00315200002, 0.00168800005,           0.
    668, 0.00315200002, 0.00179200002,           0.
    669, 0.00315200002, 0.00189600012,           0.
    670, 0.00315199979,     0.001896,           0.
    671, 0.00315199979, 0.00179200002,           0.
    672, 0.00315199979, 0.00168800005,           0.
    673, 0.00325600011,     0.001896,           0.
    674, 0.00325600011, 0.00179200002,           0.
    675, 0.00325600011, 0.00168800005,           0.
    676, 0.00335999997,     0.001896,           0.
    677, 0.00335999997, 0.00179200002,           0.
    678, 0.00335999997, 0.00168800005,           0.
    679, 0.00315199979, 0.000103999999,           0.
    680, 0.00325600011, 0.000103999999,           0.
    681, 0.00335999997, 0.000103999999,           0.
    682, 0.00315199979, 0.000207999998,           0.
    683, 0.00325600011, 0.000207999998,           0.
    684, 0.00335999997, 0.000207999998,           0.
    685, 0.00315199979, 0.000311999989,           0.
    686, 0.00325600011, 0.000311999989,           0.
    687, 0.00335999997, 0.000311999989,           0.
    688, 0.00335999997, 0.000311999989,           0.
    689, 0.00325600011, 0.000311999989,           0.
    690, 0.00315200002, 0.000311999989,           0.
    691, 0.00335999997, 0.000207999998,           0.
    692, 0.00325600011, 0.000207999998,           0.
    693, 0.00315200002, 0.000207999998,           0.
    694, 0.00335999997, 0.000103999999,           0.
    695, 0.00325600011, 0.000103999999,           0.
    696, 0.00315200002, 0.000103999999,           0.
    697, 0.000311999989, 0.000103999999,           0.
    698, 0.000311999989, 0.000207999998,           0.
    699, 0.000311999989, 0.000311999989,           0.
    700, 0.000207999998, 0.000103999999,           0.
    701, 0.000207999998, 0.000207999998,           0.
    702, 0.000207999998, 0.000311999989,           0.
    703, 0.000103999999, 0.000103999999,           0.
    704, 0.000103999999, 0.000207999998,           0.
    705, 0.000103999999, 0.000311999989,           0.
    706, 0.0029480001, 0.000500000024,           0.
    707, 0.00284800027, 0.000500000024,           0.
    708, 0.00274799997, 0.000500000024,           0.
    709, 0.00264799967, 0.000500000024,           0.
    710, 0.00254799984, 0.000500000024,           0.
    711, 0.00244800001, 0.000500000024,           0.
    712, 0.00234800018, 0.000500000024,           0.
    713, 0.00224799989, 0.000500000024,           0.
    714, 0.00141999999, 0.000687875028,           0.
    715, 0.00152400008, 0.000687875028,           0.
    716, 0.00162800006, 0.000687875028,           0.
    717, 0.00173200003, 0.000687875028,           0.
    718, 0.00183600001, 0.000687875028,           0.
    719, 0.00193999987, 0.000687875028,           0.
    720, 0.00204399996, 0.000687875028,           0.
    721, 0.00141999999, 0.000791749975,           0.
    722, 0.00152400008, 0.000791749975,           0.
    723, 0.00162800006, 0.000791749975,           0.
    724, 0.00173200003, 0.000791749975,           0.
    725, 0.00183600001, 0.000791749975,           0.
    726, 0.00193999987, 0.000791749975,           0.
    727, 0.00204399996, 0.000791749975,           0.
    728, 0.00141999999, 0.00089562498,           0.
    729, 0.00152400008, 0.00089562498,           0.
    730, 0.00162800006, 0.00089562498,           0.
    731, 0.00173200003, 0.00089562498,           0.
    732, 0.00183600001, 0.00089562498,           0.
    733, 0.00193999987, 0.00089562498,           0.
    734, 0.00204399996, 0.00089562498,           0.
    735, 0.00141999999, 0.000999500044,           0.
    736, 0.00152400008, 0.000999500044,           0.
    737, 0.00162800006, 0.000999500044,           0.
    738, 0.00173200003, 0.000999500044,           0.
    739, 0.00183600001, 0.000999500044,           0.
    740, 0.00193999987, 0.000999500044,           0.
    741, 0.00204399996, 0.000999500044,           0.
    742, 0.00141999999, 0.00110337511,           0.
    743, 0.00152400008, 0.00110337511,           0.
    744, 0.00162800006, 0.00110337511,           0.
    745, 0.00173200003, 0.00110337511,           0.
    746, 0.00183600001, 0.00110337511,           0.
    747, 0.00193999987, 0.00110337511,           0.
    748, 0.00204399996, 0.00110337511,           0.
    749, 0.00141999999, 0.00120725017,           0.
    750, 0.00152400008, 0.00120725017,           0.
    751, 0.00162800006, 0.00120725017,           0.
    752, 0.00173200003, 0.00120725017,           0.
    753, 0.00183600001, 0.00120725017,           0.
    754, 0.00193999987, 0.00120725017,           0.
    755, 0.00204399996, 0.00120725017,           0.
    756, 0.00141999999,  0.001311125,           0.
    757, 0.00152400008,  0.001311125,           0.
    758, 0.00162800006,  0.001311125,           0.
    759, 0.00173200003,  0.001311125,           0.
    760, 0.00183600001,  0.001311125,           0.
    761, 0.00193999987,  0.001311125,           0.
    762, 0.00204399996,  0.001311125,           0.
    763, 0.000311999989, 0.000311999989,           0.
    764, 0.000207999998, 0.000311999989,           0.
    765, 0.000103999999, 0.000311999989,           0.
    766, 0.000311999989, 0.000207999998,           0.
    767, 0.000207999998, 0.000207999998,           0.
    768, 0.000103999999, 0.000207999998,           0.
    769, 0.000311999989, 0.000103999999,           0.
    770, 0.000207999998, 0.000103999999,           0.
    771, 0.000103999999, 0.000103999999,           0.
    772, 0.00141999999, 0.000687875028,           0.
    773, 0.00152400008, 0.000687875028,           0.
    774, 0.00162800006, 0.000687875028,           0.
    775, 0.00173200003, 0.000687875028,           0.
    776, 0.00183600001, 0.000687875028,           0.
    777, 0.00193999987, 0.000687875028,           0.
    778, 0.00204399996, 0.000687875028,           0.
    779, 0.00141999999, 0.000791749975,           0.
    780, 0.00152400008, 0.000791749975,           0.
    781, 0.00162800006, 0.000791749975,           0.
    782, 0.00173200003, 0.000791749975,           0.
    783, 0.00183600001, 0.000791749975,           0.
    784, 0.00193999987, 0.000791749975,           0.
    785, 0.00204399996, 0.000791749975,           0.
    786, 0.00141999999, 0.00089562498,           0.
    787, 0.00152400008, 0.00089562498,           0.
    788, 0.00162800006, 0.00089562498,           0.
    789, 0.00173200003, 0.00089562498,           0.
    790, 0.00183600001, 0.00089562498,           0.
    791, 0.00193999987, 0.00089562498,           0.
    792, 0.00204399996, 0.00089562498,           0.
    793, 0.00141999999, 0.000999500044,           0.
    794, 0.00152400008, 0.000999500044,           0.
    795, 0.00162800006, 0.000999500044,           0.
    796, 0.00173200003, 0.000999500044,           0.
    797, 0.00183600001, 0.000999500044,           0.
    798, 0.00193999987, 0.000999500044,           0.
    799, 0.00204399996, 0.000999500044,           0.
    800, 0.00141999999, 0.00110337511,           0.
    801, 0.00152400008, 0.00110337511,           0.
    802, 0.00162800006, 0.00110337511,           0.
    803, 0.00173200003, 0.00110337511,           0.
    804, 0.00183600001, 0.00110337511,           0.
    805, 0.00193999987, 0.00110337511,           0.
    806, 0.00204399996, 0.00110337511,           0.
    807, 0.00141999999, 0.00120725017,           0.
    808, 0.00152400008, 0.00120725017,           0.
    809, 0.00162800006, 0.00120725017,           0.
    810, 0.00173200003, 0.00120725017,           0.
    811, 0.00183600001, 0.00120725017,           0.
    812, 0.00193999987, 0.00120725017,           0.
    813, 0.00204399996, 0.00120725017,           0.
    814, 0.00141999999,  0.001311125,           0.
    815, 0.00152400008,  0.001311125,           0.
    816, 0.00162800006,  0.001311125,           0.
    817, 0.00173200003,  0.001311125,           0.
    818, 0.00183600001,  0.001311125,           0.
    819, 0.00193999987,  0.001311125,           0.
    820, 0.00204399996,  0.001311125,           0.
*Element, type=S4RT
1,   1,  37, 301,  44
2,  37,  38, 302, 301
3,  38,  39, 303, 302
4,  39,   2,  40, 303
5,  44, 301,  43,   4
6, 301, 302,  42,  43
7, 302, 303,  41,  42
8, 303,  40,   3,  41
 9,   5,  45, 304,  66
10,  45,  46, 305, 304
11,  46,  47, 306, 305
12,  47,   6,  48, 306
13,  66, 304, 307,  65
14, 304, 305, 308, 307
15, 305, 306, 309, 308
16, 306,  48,  49, 309
17,  65, 307, 310,  64
18, 307, 308, 311, 310
19, 308, 309, 312, 311
20, 309,  49,  50, 312
21,  64, 310, 313,  63
22, 310, 311, 314, 313
23, 311, 312, 315, 314
24, 312,  50,  51, 315
25,  63, 313, 316,  62
26, 313, 314, 317, 316
27, 314, 315, 318, 317
28, 315,  51,  52, 318
29,  62, 316, 319,  61
30, 316, 317, 320, 319
31, 317, 318, 321, 320
32, 318,  52,  53, 321
33,  61, 319, 322,  60
34, 319, 320, 323, 322
35, 320, 321, 324, 323
36, 321,  53,  54, 324
37,  60, 322, 325,  59
38, 322, 323, 326, 325
39, 323, 324, 327, 326
40, 324,  54,  55, 327
41,  59, 325,  58,   3
42, 325, 326,  57,  58
43, 326, 327,  56,  57
44, 327,  55,   7,  56
45,   8,  67, 328,  83
46,  67,  68, 329, 328
47,  68,  69, 330, 329
48,  69,   9,  70, 330
49,  83, 328, 331,  82
50, 328, 329, 332, 331
51, 329, 330, 333, 332
52, 330,  70,  71, 333
53,  82, 331, 334,  81
54, 331, 332, 335, 334
55, 332, 333, 336, 335
56, 333,  71,  72, 336
57,  81, 334, 337,  80
58, 334, 335, 338, 337
59, 335, 336, 339, 338
60, 336,  72,  73, 339
61,  80, 337, 340,  79
62, 337, 338, 341, 340
63, 338, 339, 342, 341
64, 339,  73,  74, 342
65,  79, 340, 343,  78
66, 340, 341, 344, 343
67, 341, 342, 345, 344
68, 342,  74,  75, 345
69,  78, 343, 346,  77
70, 343, 344, 347, 346
71, 344, 345, 348, 347
72, 345,  75,  76, 348
73,  77, 346,  37,   1
74, 346, 347,  38,  37
75, 347, 348,  39,  38
76, 348,  76,   2,  39
77,   3,  40, 349,  59
78,  40,   2,  84, 349
79,  59, 349, 350,  60
80, 349,  84,  85, 350
81,  60, 350, 351,  61
82, 350,  85,  86, 351
83,  61, 351, 352,  62
84, 351,  86,  87, 352
85,  62, 352, 353,  63
86, 352,  87,  88, 353
87,  63, 353, 354,  64
88, 353,  88,  89, 354
89,  64, 354, 355,  65
90, 354,  89,  90, 355
91,  65, 355, 356,  66
92, 355,  90,  91, 356
93,  66, 356,  92,   5
94, 356,  91,  10,  92
 95,  11,  93, 357, 109
 96,  93,  94, 358, 357
 97,  94,  95, 359, 358
 98,  95,  12,  96, 359
 99, 109, 357, 360, 108
100, 357, 358, 361, 360
101, 358, 359, 362, 361
102, 359,  96,  97, 362
103, 108, 360, 363, 107
104, 360, 361, 364, 363
105, 361, 362, 365, 364
106, 362,  97,  98, 365
107, 107, 363, 366, 106
108, 363, 364, 367, 366
109, 364, 365, 368, 367
110, 365,  98,  99, 368
111, 106, 366, 369, 105
112, 366, 367, 370, 369
113, 367, 368, 371, 370
114, 368,  99, 100, 371
115, 105, 369, 372, 104
116, 369, 370, 373, 372
117, 370, 371, 374, 373
118, 371, 100, 101, 374
119, 104, 372, 375, 103
120, 372, 373, 376, 375
121, 373, 374, 377, 376
122, 374, 101, 102, 377
123, 103, 375,  45,   5
124, 375, 376,  46,  45
125, 376, 377,  47,  46
126, 377, 102,   6,  47
127,   9,  69, 378, 114
128,  69,  68, 379, 378
129,  68,  67, 380, 379
130,  67,   8, 110, 380
131, 114, 378, 113,  14
132, 378, 379, 112, 113
133, 379, 380, 111, 112
134, 380, 110,  13, 111
135,   9, 115, 381,  70
136, 115, 116, 382, 381
137, 116, 117, 383, 382
138, 117, 118, 384, 383
139, 118, 119, 385, 384
140, 119, 120, 386, 385
141, 120, 121, 387, 386
142, 121, 122, 388, 387
143, 122,  15, 123, 388
144,  70, 381, 389,  71
145, 381, 382, 390, 389
146, 382, 383, 391, 390
147, 383, 384, 392, 391
148, 384, 385, 393, 392
149, 385, 386, 394, 393
150, 386, 387, 395, 394
151, 387, 388, 396, 395
152, 388, 123, 124, 396
153,  71, 389, 397,  72
154, 389, 390, 398, 397
155, 390, 391, 399, 398
156, 391, 392, 400, 399
157, 392, 393, 401, 400
158, 393, 394, 402, 401
159, 394, 395, 403, 402
160, 395, 396, 404, 403
161, 396, 124, 125, 404
162,  72, 397, 405,  73
163, 397, 398, 406, 405
164, 398, 399, 407, 406
165, 399, 400, 408, 407
166, 400, 401, 409, 408
167, 401, 402, 410, 409
168, 402, 403, 411, 410
169, 403, 404, 412, 411
170, 404, 125, 126, 412
171,  73, 405, 413,  74
172, 405, 406, 414, 413
173, 406, 407, 415, 414
174, 407, 408, 416, 415
175, 408, 409, 417, 416
176, 409, 410, 418, 417
177, 410, 411, 419, 418
178, 411, 412, 420, 419
179, 412, 126, 127, 420
180,  74, 413, 421,  75
181, 413, 414, 422, 421
182, 414, 415, 423, 422
183, 415, 416, 424, 423
184, 416, 417, 425, 424
185, 417, 418, 426, 425
186, 418, 419, 427, 426
187, 419, 420, 428, 427
188, 420, 127, 128, 428
189,  75, 421, 429,  76
190, 421, 422, 430, 429
191, 422, 423, 431, 430
192, 423, 424, 432, 431
193, 424, 425, 433, 432
194, 425, 426, 434, 433
195, 426, 427, 435, 434
196, 427, 428, 436, 435
197, 428, 128, 129, 436
198,  76, 429,  84,   2
199, 429, 430,  85,  84
200, 430, 431,  86,  85
201, 431, 432,  87,  86
202, 432, 433,  88,  87
203, 433, 434,  89,  88
204, 434, 435,  90,  89
205, 435, 436,  91,  90
206, 436, 129,  10,  91
207,  16, 130, 437, 151
208, 130, 131, 438, 437
209, 131, 132, 439, 438
210, 132,  17, 133, 439
211, 151, 437, 440, 150
212, 437, 438, 441, 440
213, 438, 439, 442, 441
214, 439, 133, 134, 442
215, 150, 440, 443, 149
216, 440, 441, 444, 443
217, 441, 442, 445, 444
218, 442, 134, 135, 445
219, 149, 443, 446, 148
220, 443, 444, 447, 446
221, 444, 445, 448, 447
222, 445, 135, 136, 448
223, 148, 446, 449, 147
224, 446, 447, 450, 449
225, 447, 448, 451, 450
226, 448, 136, 137, 451
227, 147, 449, 452, 146
228, 449, 450, 453, 452
229, 450, 451, 454, 453
230, 451, 137, 138, 454
231, 146, 452, 455, 145
232, 452, 453, 456, 455
233, 453, 454, 457, 456
234, 454, 138, 139, 457
235, 145, 455, 458, 144
236, 455, 456, 459, 458
237, 456, 457, 460, 459
238, 457, 139, 140, 460
239, 144, 458, 143,  18
240, 458, 459, 142, 143
241, 459, 460, 141, 142
242, 460, 140,  14, 141
243,  19, 152, 461, 159
244, 152,  11, 109, 461
245, 159, 461, 462, 158
246, 461, 109, 108, 462
247, 158, 462, 463, 157
248, 462, 108, 107, 463
249, 157, 463, 464, 156
250, 463, 107, 106, 464
251, 156, 464, 465, 155
252, 464, 106, 105, 465
253, 155, 465, 466, 154
254, 465, 105, 104, 466
255, 154, 466, 467, 153
256, 466, 104, 103, 467
257, 153, 467,  92,  10
258, 467, 103,   5,  92
259,  12,  95, 468, 178
260,  95,  94, 469, 468
261,  94,  93, 470, 469
262,  93,  11, 160, 470
263, 178, 468, 471, 177
264, 468, 469, 472, 471
265, 469, 470, 473, 472
266, 470, 160, 161, 473
267, 177, 471, 474, 176
268, 471, 472, 475, 474
269, 472, 473, 476, 475
270, 473, 161, 162, 476
271, 176, 474, 477, 175
272, 474, 475, 478, 477
273, 475, 476, 479, 478
274, 476, 162, 163, 479
275, 175, 477, 480, 174
276, 477, 478, 481, 480
277, 478, 479, 482, 481
278, 479, 163, 164, 482
279, 174, 480, 483, 173
280, 480, 481, 484, 483
281, 481, 482, 485, 484
282, 482, 164, 165, 485
283, 173, 483, 486, 172
284, 483, 484, 487, 486
285, 484, 485, 488, 487
286, 485, 165, 166, 488
287, 172, 486, 489, 171
288, 486, 487, 490, 489
289, 487, 488, 491, 490
290, 488, 166, 167, 491
291, 171, 489, 170,  21
292, 489, 490, 169, 170
293, 490, 491, 168, 169
294, 491, 167,  20, 168
295,  22, 179, 492, 186
296, 179, 180, 493, 492
297, 180, 181, 494, 493
298, 181,  23, 182, 494
299, 186, 492, 185,  20
300, 492, 493, 184, 185
301, 493, 494, 183, 184
302, 494, 182,  24, 183
303,  25, 187, 495, 203
304, 187, 188, 496, 495
305, 188, 189, 497, 496
306, 189,  26, 190, 497
307, 203, 495, 498, 202
308, 495, 496, 499, 498
309, 496, 497, 500, 499
310, 497, 190, 191, 500
311, 202, 498, 501, 201
312, 498, 499, 502, 501
313, 499, 500, 503, 502
314, 500, 191, 192, 503
315, 201, 501, 504, 200
316, 501, 502, 505, 504
317, 502, 503, 506, 505
318, 503, 192, 193, 506
319, 200, 504, 507, 199
320, 504, 505, 508, 507
321, 505, 506, 509, 508
322, 506, 193, 194, 509
323, 199, 507, 510, 198
324, 507, 508, 511, 510
325, 508, 509, 512, 511
326, 509, 194, 195, 512
327, 198, 510, 513, 197
328, 510, 511, 514, 513
329, 511, 512, 515, 514
330, 512, 195, 196, 515
331, 197, 513, 130,  16
332, 513, 514, 131, 130
333, 514, 515, 132, 131
334, 515, 196,  17, 132
335,  14, 140, 516, 114
336, 140, 139, 517, 516
337, 139, 138, 518, 517
338, 138, 137, 519, 518
339, 137, 136, 520, 519
340, 136, 135, 521, 520
341, 135, 134, 522, 521
342, 134, 133, 523, 522
343, 133,  17, 204, 523
344, 114, 516, 115,   9
345, 516, 517, 116, 115
346, 517, 518, 117, 116
347, 518, 519, 118, 117
348, 519, 520, 119, 118
349, 520, 521, 120, 119
350, 521, 522, 121, 120
351, 522, 523, 122, 121
352, 523, 204,  15, 122
353,  20, 167, 524, 186
354, 167, 166, 525, 524
355, 166, 165, 526, 525
356, 165, 164, 527, 526
357, 164, 163, 528, 527
358, 163, 162, 529, 528
359, 162, 161, 530, 529
360, 161, 160, 531, 530
361, 160,  11, 152, 531
362, 186, 524, 212,  22
363, 524, 525, 211, 212
364, 525, 526, 210, 211
365, 526, 527, 209, 210
366, 527, 528, 208, 209
367, 528, 529, 207, 208
368, 529, 530, 206, 207
369, 530, 531, 205, 206
370, 531, 152,  19, 205
371,  27, 213, 532, 229
372, 213, 214, 533, 532
373, 214, 215, 534, 533
374, 215,  28, 216, 534
375, 229, 532, 535, 228
376, 532, 533, 536, 535
377, 533, 534, 537, 536
378, 534, 216, 217, 537
379, 228, 535, 538, 227
380, 535, 536, 539, 538
381, 536, 537, 540, 539
382, 537, 217, 218, 540
383, 227, 538, 541, 226
384, 538, 539, 542, 541
385, 539, 540, 543, 542
386, 540, 218, 219, 543
387, 226, 541, 544, 225
388, 541, 542, 545, 544
389, 542, 543, 546, 545
390, 543, 219, 220, 546
391, 225, 544, 547, 224
392, 544, 545, 548, 547
393, 545, 546, 549, 548
394, 546, 220, 221, 549
395, 224, 547, 550, 223
396, 547, 548, 551, 550
397, 548, 549, 552, 551
398, 549, 221, 222, 552
399, 223, 550, 179,  22
400, 550, 551, 180, 179
401, 551, 552, 181, 180
402, 552, 222,  23, 181
403,  26, 189, 553, 248
404, 189, 188, 554, 553
405, 188, 187, 555, 554
406, 187,  25, 230, 555
407, 248, 553, 556, 247
408, 553, 554, 557, 556
409, 554, 555, 558, 557
410, 555, 230, 231, 558
411, 247, 556, 559, 246
412, 556, 557, 560, 559
413, 557, 558, 561, 560
414, 558, 231, 232, 561
415, 246, 559, 562, 245
416, 559, 560, 563, 562
417, 560, 561, 564, 563
418, 561, 232, 233, 564
419, 245, 562, 565, 244
420, 562, 563, 566, 565
421, 563, 564, 567, 566
422, 564, 233, 234, 567
423, 244, 565, 568, 243
424, 565, 566, 569, 568
425, 566, 567, 570, 569
426, 567, 234, 235, 570
427, 243, 568, 571, 242
428, 568, 569, 572, 571
429, 569, 570, 573, 572
430, 570, 235, 236, 573
431, 242, 571, 574, 241
432, 571, 572, 575, 574
433, 572, 573, 576, 575
434, 573, 236, 237, 576
435, 241, 574, 240,  30
436, 574, 575, 239, 240
437, 575, 576, 238, 239
438, 576, 237,  29, 238
439,  26, 249, 577, 190
440, 249,  31, 250, 577
441, 190, 577, 578, 191
442, 577, 250, 251, 578
443, 191, 578, 579, 192
444, 578, 251, 252, 579
445, 192, 579, 580, 193
446, 579, 252, 253, 580
447, 193, 580, 581, 194
448, 580, 253, 254, 581
449, 194, 581, 582, 195
450, 581, 254, 255, 582
451, 195, 582, 583, 196
452, 582, 255, 256, 583
453, 196, 583, 204,  17
454, 583, 256,  15, 204
455,  31, 257, 584, 271
456, 257, 258, 585, 584
457, 258, 259, 586, 585
458, 259, 260, 587, 586
459, 260, 261, 588, 587
460, 261, 262, 589, 588
461, 262, 263, 590, 589
462, 263, 264, 591, 590
463, 264,  27, 229, 591
464, 271, 584, 592, 270
465, 584, 585, 593, 592
466, 585, 586, 594, 593
467, 586, 587, 595, 594
468, 587, 588, 596, 595
469, 588, 589, 597, 596
470, 589, 590, 598, 597
471, 590, 591, 599, 598
472, 591, 229, 228, 599
473, 270, 592, 600, 269
474, 592, 593, 601, 600
475, 593, 594, 602, 601
476, 594, 595, 603, 602
477, 595, 596, 604, 603
478, 596, 597, 605, 604
479, 597, 598, 606, 605
480, 598, 599, 607, 606
481, 599, 228, 227, 607
482, 269, 600, 608, 268
483, 600, 601, 609, 608
484, 601, 602, 610, 609
485, 602, 603, 611, 610
486, 603, 604, 612, 611
487, 604, 605, 613, 612
488, 605, 606, 614, 613
489, 606, 607, 615, 614
490, 607, 227, 226, 615
491, 268, 608, 616, 267
492, 608, 609, 617, 616
493, 609, 610, 618, 617
494, 610, 611, 619, 618
495, 611, 612, 620, 619
496, 612, 613, 621, 620
497, 613, 614, 622, 621
498, 614, 615, 623, 622
499, 615, 226, 225, 623
500, 267, 616, 624, 266
501, 616, 617, 625, 624
502, 617, 618, 626, 625
503, 618, 619, 627, 626
504, 619, 620, 628, 627
505, 620, 621, 629, 628
506, 621, 622, 630, 629
507, 622, 623, 631, 630
508, 623, 225, 224, 631
509, 266, 624, 632, 265
510, 624, 625, 633, 632
511, 625, 626, 634, 633
512, 626, 627, 635, 634
513, 627, 628, 636, 635
514, 628, 629, 637, 636
515, 629, 630, 638, 637
516, 630, 631, 639, 638
517, 631, 224, 223, 639
518, 265, 632, 205,  19
519, 632, 633, 206, 205
520, 633, 634, 207, 206
521, 634, 635, 208, 207
522, 635, 636, 209, 208
523, 636, 637, 210, 209
524, 637, 638, 211, 210
525, 638, 639, 212, 211
526, 639, 223,  22, 212
527,  28, 215, 640, 276
528, 215, 214, 641, 640
529, 214, 213, 642, 641
530, 213,  27, 272, 642
531, 276, 640, 275,  32
532, 640, 641, 274, 275
533, 641, 642, 273, 274
534, 642, 272,  30, 273
535,   3,  58, 643,  41
536,  58,  57, 644, 643
537,  57,  56, 645, 644
538,  56,   7, 277, 645
539,  41, 643, 646,  42
540, 643, 644, 647, 646
541, 644, 645, 648, 647
542, 645, 277, 278, 648
543,  42, 646, 649,  43
544, 646, 647, 650, 649
545, 647, 648, 651, 650
546, 648, 278, 279, 651
547,  43, 649, 282,   4
548, 649, 650, 281, 282
549, 650, 651, 280, 281
550, 651, 279,  33, 280
551,   4,  43, 652, 282
552,  43,  42, 653, 652
553,  42,  41, 654, 653
554,  41,   3,  58, 654
555, 282, 652, 655, 281
556, 652, 653, 656, 655
557, 653, 654, 657, 656
558, 654,  58,  57, 657
559, 281, 655, 658, 280
560, 655, 656, 659, 658
561, 656, 657, 660, 659
562, 657,  57,  56, 660
563, 280, 658, 279,  33
564, 658, 659, 278, 279
565, 659, 660, 277, 278
566, 660,  56,   7, 277
567,  24, 283, 661, 183
568, 283, 284, 662, 661
569, 284, 285, 663, 662
570, 285,  34, 286, 663
571, 183, 661, 664, 184
572, 661, 662, 665, 664
573, 662, 663, 666, 665
574, 663, 286, 287, 666
575, 184, 664, 667, 185
576, 664, 665, 668, 667
577, 665, 666, 669, 668
578, 666, 287, 288, 669
579, 185, 667, 168,  20
580, 667, 668, 169, 168
581, 668, 669, 170, 169
582, 669, 288,  21, 170
583,  21, 170, 670, 288
584, 170, 169, 671, 670
585, 169, 168, 672, 671
586, 168,  20, 185, 672
587, 288, 670, 673, 287
588, 670, 671, 674, 673
589, 671, 672, 675, 674
590, 672, 185, 184, 675
591, 287, 673, 676, 286
592, 673, 674, 677, 676
593, 674, 675, 678, 677
594, 675, 184, 183, 678
595, 286, 676, 285,  34
596, 676, 677, 284, 285
597, 677, 678, 283, 284
598, 678, 183,  24, 283
599,  29, 289, 679, 238
600, 289, 290, 680, 679
601, 290, 291, 681, 680
602, 291,  35, 292, 681
603, 238, 679, 682, 239
604, 679, 680, 683, 682
605, 680, 681, 684, 683
606, 681, 292, 293, 684
607, 239, 682, 685, 240
608, 682, 683, 686, 685
609, 683, 684, 687, 686
610, 684, 293, 294, 687
611, 240, 685, 273,  30
612, 685, 686, 274, 273
613, 686, 687, 275, 274
614, 687, 294,  32, 275
615,  32, 275, 688, 294
616, 275, 274, 689, 688
617, 274, 273, 690, 689
618, 273,  30, 240, 690
619, 294, 688, 691, 293
620, 688, 689, 692, 691
621, 689, 690, 693, 692
622, 690, 240, 239, 693
623, 293, 691, 694, 292
624, 691, 692, 695, 694
625, 692, 693, 696, 695
626, 693, 239, 238, 696
627, 292, 694, 291,  35
628, 694, 695, 290, 291
629, 695, 696, 289, 290
630, 696, 238,  29, 289
631,  18, 143, 697, 300
632, 143, 142, 698, 697
633, 142, 141, 699, 698
634, 141,  14, 113, 699
635, 300, 697, 700, 299
636, 697, 698, 701, 700
637, 698, 699, 702, 701
638, 699, 113, 112, 702
639, 299, 700, 703, 298
640, 700, 701, 704, 703
641, 701, 702, 705, 704
642, 702, 112, 111, 705
643, 298, 703, 297,  36
644, 703, 704, 296, 297
645, 704, 705, 295, 296
646, 705, 111,  13, 295
647,  30, 272, 706, 241
648, 272,  27, 264, 706
649, 241, 706, 707, 242
650, 706, 264, 263, 707
651, 242, 707, 708, 243
652, 707, 263, 262, 708
653, 243, 708, 709, 244
654, 708, 262, 261, 709
655, 244, 709, 710, 245
656, 709, 261, 260, 710
657, 245, 710, 711, 246
658, 710, 260, 259, 711
659, 246, 711, 712, 247
660, 711, 259, 258, 712
661, 247, 712, 713, 248
662, 712, 258, 257, 713
663, 248, 713, 249,  26
664, 713, 257,  31, 249
665,  15, 256, 714, 123
666, 256, 255, 715, 714
667, 255, 254, 716, 715
668, 254, 253, 717, 716
669, 253, 252, 718, 717
670, 252, 251, 719, 718
671, 251, 250, 720, 719
672, 250,  31, 271, 720
673, 123, 714, 721, 124
674, 714, 715, 722, 721
675, 715, 716, 723, 722
676, 716, 717, 724, 723
677, 717, 718, 725, 724
678, 718, 719, 726, 725
679, 719, 720, 727, 726
680, 720, 271, 270, 727
681, 124, 721, 728, 125
682, 721, 722, 729, 728
683, 722, 723, 730, 729
684, 723, 724, 731, 730
685, 724, 725, 732, 731
686, 725, 726, 733, 732
687, 726, 727, 734, 733
688, 727, 270, 269, 734
689, 125, 728, 735, 126
690, 728, 729, 736, 735
691, 729, 730, 737, 736
692, 730, 731, 738, 737
693, 731, 732, 739, 738
694, 732, 733, 740, 739
695, 733, 734, 741, 740
696, 734, 269, 268, 741
697, 126, 735, 742, 127
698, 735, 736, 743, 742
699, 736, 737, 744, 743
700, 737, 738, 745, 744
701, 738, 739, 746, 745
702, 739, 740, 747, 746
703, 740, 741, 748, 747
704, 741, 268, 267, 748
705, 127, 742, 749, 128
706, 742, 743, 750, 749
707, 743, 744, 751, 750
708, 744, 745, 752, 751
709, 745, 746, 753, 752
710, 746, 747, 754, 753
711, 747, 748, 755, 754
712, 748, 267, 266, 755
713, 128, 749, 756, 129
714, 749, 750, 757, 756
715, 750, 751, 758, 757
716, 751, 752, 759, 758
717, 752, 753, 760, 759
718, 753, 754, 761, 760
719, 754, 755, 762, 761
720, 755, 266, 265, 762
721, 129, 756, 153,  10
722, 756, 757, 154, 153
723, 757, 758, 155, 154
724, 758, 759, 156, 155
725, 759, 760, 157, 156
726, 760, 761, 158, 157
727, 761, 762, 159, 158
728, 762, 265,  19, 159
729,  14, 113, 763, 141
730, 113, 112, 764, 763
731, 112, 111, 765, 764
732, 111,  13, 295, 765
733, 141, 763, 766, 142
734, 763, 764, 767, 766
735, 764, 765, 768, 767
736, 765, 295, 296, 768
737, 142, 766, 769, 143
738, 766, 767, 770, 769
739, 767, 768, 771, 770
740, 768, 296, 297, 771
741, 143, 769, 300,  18
742, 769, 770, 299, 300
743, 770, 771, 298, 299
744, 771, 297,  36, 298
745,  15, 256, 772, 123
746, 256, 255, 773, 772
747, 255, 254, 774, 773
748, 254, 253, 775, 774
749, 253, 252, 776, 775
750, 252, 251, 777, 776
751, 251, 250, 778, 777
752, 250,  31, 271, 778
753, 123, 772, 779, 124
754, 772, 773, 780, 779
755, 773, 774, 781, 780
756, 774, 775, 782, 781
757, 775, 776, 783, 782
758, 776, 777, 784, 783
759, 777, 778, 785, 784
760, 778, 271, 270, 785
761, 124, 779, 786, 125
762, 779, 780, 787, 786
763, 780, 781, 788, 787
764, 781, 782, 789, 788
765, 782, 783, 790, 789
766, 783, 784, 791, 790
767, 784, 785, 792, 791
768, 785, 270, 269, 792
769, 125, 786, 793, 126
770, 786, 787, 794, 793
771, 787, 788, 795, 794
772, 788, 789, 796, 795
773, 789, 790, 797, 796
774, 790, 791, 798, 797
775, 791, 792, 799, 798
776, 792, 269, 268, 799
777, 126, 793, 800, 127
778, 793, 794, 801, 800
779, 794, 795, 802, 801
780, 795, 796, 803, 802
781, 796, 797, 804, 803
782, 797, 798, 805, 804
783, 798, 799, 806, 805
784, 799, 268, 267, 806
785, 127, 800, 807, 128
786, 800, 801, 808, 807
787, 801, 802, 809, 808
788, 802, 803, 810, 809
789, 803, 804, 811, 810
790, 804, 805, 812, 811
791, 805, 806, 813, 812
792, 806, 267, 266, 813
793, 128, 807, 814, 129
794, 807, 808, 815, 814
795, 808, 809, 816, 815
796, 809, 810, 817, 816
797, 810, 811, 818, 817
798, 811, 812, 819, 818
799, 812, 813, 820, 819
800, 813, 266, 265, 820
801, 129, 814, 153,  10
802, 814, 815, 154, 153
803, 815, 816, 155, 154
804, 816, 817, 156, 155
805, 817, 818, 157, 156
806, 818, 819, 158, 157
807, 819, 820, 159, 158
808, 820, 265,  19, 159
*Nset, nset=C1M1-1_BL-Elasticity
   3,   4,   7,  10,  13,  14,  15,  18,  19,  20,  21,  24,  29,  30,  31,  32
  33,  34,  35,  36,  41,  42,  43,  56,  57,  58, 111, 112, 113, 123, 124, 125
 126, 127, 128, 129, 141, 142, 143, 153, 154, 155, 156, 157, 158, 159, 168, 169
 170, 183, 184, 185, 238, 239, 240, 250, 251, 252, 253, 254, 255, 256, 265, 266
 267, 268, 269, 270, 271, 273, 274, 275, 277, 278, 279, 280, 281, 282, 283, 284
 285, 286, 287, 288, 289, 290, 291, 292, 293, 294, 295, 296, 297, 298, 299, 300
 652, 653, 654, 655, 656, 657, 658, 659, 660, 670, 671, 672, 673, 674, 675, 676
 677, 678, 688, 689, 690, 691, 692, 693, 694, 695, 696, 763, 764, 765, 766, 767
 768, 769, 770, 771, 772, 773, 774, 775, 776, 777, 778, 779, 780, 781, 782, 783
 784, 785, 786, 787, 788, 789, 790, 791, 792, 793, 794, 795, 796, 797, 798, 799
 800, 801, 802, 803, 804, 805, 806, 807, 808, 809, 810, 811, 812, 813, 814, 815
 816, 817, 818, 819, 820
*Elset, elset=C1M1-1_BL-Elasticity
 551, 552, 553, 554, 555, 556, 557, 558, 559, 560, 561, 562, 563, 564, 565, 566
 583, 584, 585, 586, 587, 588, 589, 590, 591, 592, 593, 594, 595, 596, 597, 598
 615, 616, 617, 618, 619, 620, 621, 622, 623, 624, 625, 626, 627, 628, 629, 630
 729, 730, 731, 732, 733, 734, 735, 736, 737, 738, 739, 740, 741, 742, 743, 744
 745, 746, 747, 748, 749, 750, 751, 752, 753, 754, 755, 756, 757, 758, 759, 760
 761, 762, 763, 764, 765, 766, 767, 768, 769, 770, 771, 772, 773, 774, 775, 776
 777, 778, 779, 780, 781, 782, 783, 784, 785, 786, 787, 788, 789, 790, 791, 792
 793, 794, 795, 796, 797, 798, 799, 800, 801, 802, 803, 804, 805, 806, 807, 808
*Nset, nset=C1M1-1_BL-Plasticity
   1,   2,   3,   4,   5,   6,   7,   8,   9,  10,  11,  12,  13,  14,  15,  16
  17,  18,  19,  20,  21,  22,  23,  24,  25,  26,  27,  28,  29,  30,  31,  32
  37,  38,  39,  40,  41,  42,  43,  44,  45,  46,  47,  48,  49,  50,  51,  52
  53,  54,  55,  56,  57,  58,  59,  60,  61,  62,  63,  64,  65,  66,  67,  68
  69,  70,  71,  72,  73,  74,  75,  76,  77,  78,  79,  80,  81,  82,  83,  84
  85,  86,  87,  88,  89,  90,  91,  92,  93,  94,  95,  96,  97,  98,  99, 100
 101, 102, 103, 104, 105, 106, 107, 108, 109, 110, 111, 112, 113, 114, 115, 116
 117, 118, 119, 120, 121, 122, 123, 124, 125, 126, 127, 128, 129, 130, 131, 132
 133, 134, 135, 136, 137, 138, 139, 140, 141, 142, 143, 144, 145, 146, 147, 148
 149, 150, 151, 152, 153, 154, 155, 156, 157, 158, 159, 160, 161, 162, 163, 164
 165, 166, 167, 168, 169, 170, 171, 172, 173, 174, 175, 176, 177, 178, 179, 180
 181, 182, 183, 184, 185, 186, 187, 188, 189, 190, 191, 192, 193, 194, 195, 196
 197, 198, 199, 200, 201, 202, 203, 204, 205, 206, 207, 208, 209, 210, 211, 212
 213, 214, 215, 216, 217, 218, 219, 220, 221, 222, 223, 224, 225, 226, 227, 228
 229, 230, 231, 232, 233, 234, 235, 236, 237, 238, 239, 240, 241, 242, 243, 244
 245, 246, 247, 248, 249, 250, 251, 252, 253, 254, 255, 256, 257, 258, 259, 260
 261, 262, 263, 264, 265, 266, 267, 268, 269, 270, 271, 272, 273, 274, 275, 276
 301, 302, 303, 304, 305, 306, 307, 308, 309, 310, 311, 312, 313, 314, 315, 316
 317, 318, 319, 320, 321, 322, 323, 324, 325, 326, 327, 328, 329, 330, 331, 332
 333, 334, 335, 336, 337, 338, 339, 340, 341, 342, 343, 344, 345, 346, 347, 348
 349, 350, 351, 352, 353, 354, 355, 356, 357, 358, 359, 360, 361, 362, 363, 364
 365, 366, 367, 368, 369, 370, 371, 372, 373, 374, 375, 376, 377, 378, 379, 380
 381, 382, 383, 384, 385, 386, 387, 388, 389, 390, 391, 392, 393, 394, 395, 396
 397, 398, 399, 400, 401, 402, 403, 404, 405, 406, 407, 408, 409, 410, 411, 412
 413, 414, 415, 416, 417, 418, 419, 420, 421, 422, 423, 424, 425, 426, 427, 428
 429, 430, 431, 432, 433, 434, 435, 436, 437, 438, 439, 440, 441, 442, 443, 444
 445, 446, 447, 448, 449, 450, 451, 452, 453, 454, 455, 456, 457, 458, 459, 460
 461, 462, 463, 464, 465, 466, 467, 468, 469, 470, 471, 472, 473, 474, 475, 476
 477, 478, 479, 480, 481, 482, 483, 484, 485, 486, 487, 488, 489, 490, 491, 492
 493, 494, 495, 496, 497, 498, 499, 500, 501, 502, 503, 504, 505, 506, 507, 508
 509, 510, 511, 512, 513, 514, 515, 516, 517, 518, 519, 520, 521, 522, 523, 524
 525, 526, 527, 528, 529, 530, 531, 532, 533, 534, 535, 536, 537, 538, 539, 540
 541, 542, 543, 544, 545, 546, 547, 548, 549, 550, 551, 552, 553, 554, 555, 556
 557, 558, 559, 560, 561, 562, 563, 564, 565, 566, 567, 568, 569, 570, 571, 572
 573, 574, 575, 576, 577, 578, 579, 580, 581, 582, 583, 584, 585, 586, 587, 588
 589, 590, 591, 592, 593, 594, 595, 596, 597, 598, 599, 600, 601, 602, 603, 604
 605, 606, 607, 608, 609, 610, 611, 612, 613, 614, 615, 616, 617, 618, 619, 620
 621, 622, 623, 624, 625, 626, 627, 628, 629, 630, 631, 632, 633, 634, 635, 636
 637, 638, 639, 640, 641, 642, 706, 707, 708, 709, 710, 711, 712, 713
*Elset, elset=C1M1-1_BL-Plasticity
   1,   2,   3,   4,   5,   6,   7,   8,   9,  10,  11,  12,  13,  14,  15,  16
  17,  18,  19,  20,  21,  22,  23,  24,  25,  26,  27,  28,  29,  30,  31,  32
  33,  34,  35,  36,  37,  38,  39,  40,  41,  42,  43,  44,  45,  46,  47,  48
  49,  50,  51,  52,  53,  54,  55,  56,  57,  58,  59,  60,  61,  62,  63,  64
  65,  66,  67,  68,  69,  70,  71,  72,  73,  74,  75,  76,  77,  78,  79,  80
  81,  82,  83,  84,  85,  86,  87,  88,  89,  90,  91,  92,  93,  94,  95,  96
  97,  98,  99, 100, 101, 102, 103, 104, 105, 106, 107, 108, 109, 110, 111, 112
 113, 114, 115, 116, 117, 118, 119, 120, 121, 122, 123, 124, 125, 126, 127, 128
 129, 130, 131, 132, 133, 134, 135, 136, 137, 138, 139, 140, 141, 142, 143, 144
 145, 146, 147, 148, 149, 150, 151, 152, 153, 154, 155, 156, 157, 158, 159, 160
 161, 162, 163, 164, 165, 166, 167, 168, 169, 170, 171, 172, 173, 174, 175, 176
 177, 178, 179, 180, 181, 182, 183, 184, 185, 186, 187, 188, 189, 190, 191, 192
 193, 194, 195, 196, 197, 198, 199, 200, 201, 202, 203, 204, 205, 206, 207, 208
 209, 210, 211, 212, 213, 214, 215, 216, 217, 218, 219, 220, 221, 222, 223, 224
 225, 226, 227, 228, 229, 230, 231, 232, 233, 234, 235, 236, 237, 238, 239, 240
 241, 242, 243, 244, 245, 246, 247, 248, 249, 250, 251, 252, 253, 254, 255, 256
 257, 258, 259, 260, 261, 262, 263, 264, 265, 266, 267, 268, 269, 270, 271, 272
 273, 274, 275, 276, 277, 278, 279, 280, 281, 282, 283, 284, 285, 286, 287, 288
 289, 290, 291, 292, 293, 294, 295, 296, 297, 298, 299, 300, 301, 302, 303, 304
 305, 306, 307, 308, 309, 310, 311, 312, 313, 314, 315, 316, 317, 318, 319, 320
 321, 322, 323, 324, 325, 326, 327, 328, 329, 330, 331, 332, 333, 334, 335, 336
 337, 338, 339, 340, 341, 342, 343, 344, 345, 346, 347, 348, 349, 350, 351, 352
 353, 354, 355, 356, 357, 358, 359, 360, 361, 362, 363, 364, 365, 366, 367, 368
 369, 370, 371, 372, 373, 374, 375, 376, 377, 378, 379, 380, 381, 382, 383, 384
 385, 386, 387, 388, 389, 390, 391, 392, 393, 394, 395, 396, 397, 398, 399, 400
 401, 402, 403, 404, 405, 406, 407, 408, 409, 410, 411, 412, 413, 414, 415, 416
 417, 418, 419, 420, 421, 422, 423, 424, 425, 426, 427, 428, 429, 430, 431, 432
 433, 434, 435, 436, 437, 438, 439, 440, 441, 442, 443, 444, 445, 446, 447, 448
 449, 450, 451, 452, 453, 454, 455, 456, 457, 458, 459, 460, 461, 462, 463, 464
 465, 466, 467, 468, 469, 470, 471, 472, 473, 474, 475, 476, 477, 478, 479, 480
 481, 482, 483, 484, 485, 486, 487, 488, 489, 490, 491, 492, 493, 494, 495, 496
 497, 498, 499, 500, 501, 502, 503, 504, 505, 506, 507, 508, 509, 510, 511, 512
 513, 514, 515, 516, 517, 518, 519, 520, 521, 522, 523, 524, 525, 526, 527, 528
 529, 530, 531, 532, 533, 534, 647, 648, 649, 650, 651, 652, 653, 654, 655, 656
 657, 658, 659, 660, 661, 662, 663, 664
*Nset, nset=C1M1-1_bottom
  16,  18,  25,  29,  35,  36, 144, 145, 146, 147, 148, 149, 150, 151, 197, 198
 199, 200, 201, 202, 203, 230, 231, 232, 233, 234, 235, 236, 237, 289, 290, 291
 298, 299, 300
*Nset, nset=C1M1-1_PB_left
  36, 297, 296, 295,  13, 110,   8,  83,  82,  81,  80,  79,  78,  77,   1,  44
   4, 282, 281, 280,  33
*Nset, nset=C1M1-1_PB_right
  35, 292, 293, 294,  32, 276,  28, 216, 217, 218, 219, 220, 221, 222,  23, 182
  24, 283, 284, 285, 34
*Nset, nset=C1M1-1_top
   6,   7,  12,  21,  33,  34,  48,  49,  50,  51,  52,  53,  54,  55,  96,  97
  98,  99, 100, 101, 102, 171, 172, 173, 174, 175, 176, 177, 178, 277, 278, 279
 286, 287, 288
*System
** 
** MATERIALS
** 
*Material, name=Al
*Elastic
26300., 0.33
*Material, name=SiC
*Elastic
192300., 0.17
