*Heading
** Job name: C1M1_H0002-NP Model name: C1M1_H0002-NP
** Generated by: Abaqus/CAE 2020
*Preprint, echo=NO, model=NO, history=NO, contact=NO
** ----------------------------------------------------------------
** 
** PART INSTANCE: Part-1-1
** 
*Node
1, 0.04500000, 0.00000000
2, 0.04500000, 0.04160000
3, 0.00000000, 0.04160000
4, 0.00000000, 0.00000000
5, 0.00000000, 0.15840000
6, 0.04500000, 0.15840000
7, 0.04500000, 0.20000001
8, 0.00000000, 0.20000001
9, 0.12820000, 0.00000000
10, 0.12820000, 0.04160000
11, 0.04500000, 0.05840000
12, 0.00000000, 0.05840000
13, 0.00000000, 0.14160000
14, 0.04500000, 0.14160000
15, 0.12820000, 0.15840000
16, 0.12820000, 0.20000001
17, 0.21820001, 0.00000000
18, 0.21820001, 0.04160000
19, 0.12820000, 0.05840000
20, 0.12820000, 0.14160000
21, 0.21820001, 0.15840000
22, 0.21820001, 0.20000001
23, 0.30139999, 0.04160000
24, 0.30139999, 0.00000000
25, 0.34640001, 0.00000000
26, 0.34640001, 0.04160000
27, 0.30139999, 0.20000001
28, 0.30139999, 0.15840000
29, 0.34640001, 0.15840000
30, 0.34640001, 0.20000001
31, 0.21820001, 0.05840000
32, 0.21820001, 0.14160000
33, 0.34640001, 0.05840000
34, 0.30139999, 0.05840000
35, 0.30139999, 0.14160000
36, 0.34640001, 0.14160000
37, 0.04500000, 0.01040000
38, 0.04500000, 0.02080000
39, 0.04500000, 0.03120000
40, 0.03604301, 0.04160000
41, 0.02706457, 0.04160000
42, 0.01806462, 0.04160000
43, 0.00904312, 0.04160000
44, 0.00000000, 0.03120000
45, 0.00000000, 0.02080000
46, 0.00000000, 0.01040000
47, 0.00900000, 0.00000000
48, 0.01800000, 0.00000000
49, 0.02700000, 0.00000000
50, 0.03600000, 0.00000000
51, 0.00904312, 0.15840000
52, 0.01806462, 0.15840000
53, 0.02706457, 0.15840000
54, 0.03604301, 0.15840000
55, 0.04500000, 0.16879999
56, 0.04500000, 0.17919999
57, 0.04500000, 0.18960000
58, 0.03600000, 0.20000001
59, 0.02700000, 0.20000001
60, 0.01800000, 0.20000001
61, 0.00900000, 0.20000001
62, 0.00000000, 0.18960000
63, 0.00000000, 0.17920000
64, 0.00000000, 0.16879999
65, 0.05332000, 0.00000000
66, 0.06164000, 0.00000000
67, 0.06996000, 0.00000000
68, 0.07828000, 0.00000000
69, 0.08660000, 0.00000000
70, 0.09492000, 0.00000000
71, 0.10323999, 0.00000000
72, 0.11156000, 0.00000000
73, 0.11988001, 0.00000000
74, 0.12820000, 0.01040000
75, 0.12820000, 0.02080000
76, 0.12820000, 0.03120000
77, 0.11988001, 0.04160000
78, 0.11156000, 0.04160000
79, 0.10323999, 0.04160000
80, 0.09492000, 0.04160000
81, 0.08660000, 0.04160000
82, 0.07828000, 0.04160000
83, 0.06996000, 0.04160000
84, 0.06164000, 0.04160000
85, 0.05332000, 0.04160000
86, 0.04500000, 0.05000000
87, 0.03600000, 0.05840000
88, 0.02700000, 0.05840000
89, 0.01800000, 0.05840000
90, 0.00900000, 0.05840000
91, 0.00000000, 0.05000000
92, 0.00000000, 0.15000000
93, 0.00900000, 0.14160000
94, 0.01800000, 0.14160000
95, 0.02700000, 0.14160000
96, 0.03600000, 0.14160000
97, 0.04500000, 0.15000000
98, 0.05332000, 0.15840000
99, 0.06164000, 0.15840000
100, 0.06996000, 0.15840000
101, 0.07828000, 0.15840000
102, 0.08660000, 0.15840000
103, 0.09492000, 0.15840000
104, 0.10323999, 0.15840000
105, 0.11156000, 0.15840000
106, 0.11988001, 0.15840000
107, 0.12820000, 0.16879999
108, 0.12820000, 0.17919999
109, 0.12820000, 0.18960000
110, 0.11988001, 0.20000001
111, 0.11156000, 0.20000001
112, 0.10323999, 0.20000001
113, 0.09492000, 0.20000001
114, 0.08660000, 0.20000001
115, 0.07828000, 0.20000001
116, 0.06996000, 0.20000001
117, 0.06164000, 0.20000001
118, 0.05332000, 0.20000001
119, 0.13945000, 0.00000000
120, 0.15070000, 0.00000000
121, 0.16195000, 0.00000000
122, 0.17320000, 0.00000000
123, 0.18445000, 0.00000000
124, 0.19570000, 0.00000000
125, 0.20695000, 0.00000000
126, 0.21820001, 0.01040000
127, 0.21820001, 0.02080000
128, 0.21820001, 0.03120000
129, 0.20695000, 0.04160000
130, 0.19570000, 0.04160000
131, 0.18445000, 0.04160000
132, 0.17320000, 0.04160000
133, 0.16195000, 0.04160000
134, 0.15070000, 0.04160000
135, 0.13945000, 0.04160000
136, 0.11988001, 0.05840000
137, 0.11156000, 0.05840000
138, 0.10323999, 0.05840000
139, 0.09492000, 0.05840000
140, 0.08660000, 0.05840000
141, 0.07828000, 0.05840000
142, 0.06996000, 0.05840000
143, 0.06164000, 0.05840000
144, 0.05332000, 0.05840000
145, 0.12820000, 0.05000000
146, 0.00000000, 0.13235556
147, 0.00000000, 0.12311111
148, 0.00000000, 0.11386666
149, 0.00000000, 0.10462222
150, 0.00000000, 0.09537778
151, 0.00000000, 0.08613333
152, 0.00000000, 0.07688889
153, 0.00000000, 0.06764444
154, 0.04500000, 0.06764444
155, 0.04500000, 0.07688889
156, 0.04500000, 0.08613333
157, 0.04500000, 0.09537778
158, 0.04500000, 0.10462222
159, 0.04500000, 0.11386666
160, 0.04500000, 0.12311111
161, 0.04500000, 0.13235556
162, 0.12820000, 0.15000000
163, 0.05332000, 0.14160000
164, 0.06164000, 0.14160000
165, 0.06996000, 0.14160000
166, 0.07828000, 0.14160000
167, 0.08660000, 0.14160000
168, 0.09492000, 0.14160000
169, 0.10323999, 0.14160000
170, 0.11156000, 0.14160000
171, 0.11988001, 0.14160000
172, 0.13945000, 0.15840000
173, 0.15070000, 0.15840000
174, 0.16195000, 0.15840000
175, 0.17320000, 0.15840000
176, 0.18445000, 0.15840000
177, 0.19570000, 0.15840000
178, 0.20695000, 0.15840000
179, 0.21820001, 0.16879999
180, 0.21820001, 0.17919999
181, 0.21820001, 0.18960000
182, 0.20695000, 0.20000001
183, 0.19570000, 0.20000001
184, 0.18445000, 0.20000001
185, 0.17320000, 0.20000001
186, 0.16195000, 0.20000001
187, 0.15070000, 0.20000001
188, 0.13945000, 0.20000001
189, 0.30139999, 0.03120000
190, 0.30139999, 0.02080000
191, 0.30139999, 0.01040000
192, 0.31039999, 0.00000000
193, 0.31940001, 0.00000000
194, 0.32840001, 0.00000000
195, 0.33740001, 0.00000000
196, 0.34640001, 0.01040000
197, 0.34640001, 0.02080000
198, 0.34640001, 0.03120000
199, 0.33740001, 0.04160000
200, 0.32839999, 0.04160000
201, 0.31939999, 0.04160000
202, 0.31039999, 0.04160000
203, 0.30139999, 0.18960000
204, 0.30139999, 0.17919999
205, 0.30139999, 0.16879999
206, 0.31039999, 0.15840000
207, 0.31939999, 0.15840000
208, 0.32839999, 0.15840000
209, 0.33740001, 0.15840000
210, 0.34640001, 0.16879999
211, 0.34640001, 0.17920000
212, 0.34640001, 0.18960000
213, 0.33740001, 0.20000001
214, 0.32840001, 0.20000001
215, 0.31940001, 0.20000001
216, 0.31039999, 0.20000001
217, 0.22744446, 0.00000000
218, 0.23668888, 0.00000000
219, 0.24593333, 0.00000000
220, 0.25517777, 0.00000000
221, 0.26442222, 0.00000000
222, 0.27366667, 0.00000000
223, 0.28291112, 0.00000000
224, 0.29215557, 0.00000000
225, 0.29215557, 0.04160000
226, 0.28291112, 0.04160000
227, 0.27366667, 0.04160000
228, 0.26442222, 0.04160000
229, 0.25517777, 0.04160000
230, 0.24593333, 0.04160000
231, 0.23668888, 0.04160000
232, 0.22744446, 0.04160000
233, 0.20695000, 0.05840000
234, 0.19570000, 0.05840000
235, 0.18445000, 0.05840000
236, 0.17320000, 0.05840000
237, 0.16195000, 0.05840000
238, 0.15070000, 0.05840000
239, 0.13945000, 0.05840000
240, 0.21820001, 0.05000000
241, 0.12820000, 0.06764444
242, 0.12820000, 0.07688889
243, 0.12820000, 0.08613333
244, 0.12820000, 0.09537778
245, 0.12820000, 0.10462222
246, 0.12820000, 0.11386666
247, 0.12820000, 0.12311111
248, 0.12820000, 0.13235556
249, 0.21820001, 0.15000000
250, 0.13945000, 0.14160000
251, 0.15070000, 0.14160000
252, 0.16195000, 0.14160000
253, 0.17320000, 0.14160000
254, 0.18445000, 0.14160000
255, 0.19570000, 0.14160000
256, 0.20695000, 0.14160000
257, 0.29215557, 0.20000001
258, 0.28291112, 0.20000001
259, 0.27366667, 0.20000001
260, 0.26442222, 0.20000001
261, 0.25517777, 0.20000001
262, 0.24593333, 0.20000001
263, 0.23668888, 0.20000001
264, 0.22744446, 0.20000001
265, 0.22744446, 0.15840000
266, 0.23668888, 0.15840000
267, 0.24593333, 0.15840000
268, 0.25517777, 0.15840000
269, 0.26442222, 0.15840000
270, 0.27366667, 0.15840000
271, 0.28291112, 0.15840000
272, 0.29215557, 0.15840000
273, 0.34640001, 0.05000000
274, 0.33740001, 0.05840000
275, 0.32839999, 0.05840000
276, 0.31939999, 0.05840000
277, 0.31039999, 0.05840000
278, 0.30139999, 0.05000000
279, 0.30139999, 0.15000000
280, 0.31039999, 0.14160000
281, 0.31939999, 0.14160000
282, 0.32839999, 0.14160000
283, 0.33740001, 0.14160000
284, 0.34640001, 0.15000000
285, 0.29215557, 0.05840000
286, 0.28291112, 0.05840000
287, 0.27366667, 0.05840000
288, 0.26442222, 0.05840000
289, 0.25517777, 0.05840000
290, 0.24593333, 0.05840000
291, 0.23668888, 0.05840000
292, 0.22744446, 0.05840000
293, 0.21820001, 0.06764444
294, 0.21820001, 0.07688889
295, 0.21820001, 0.08613333
296, 0.21820001, 0.09537778
297, 0.21820001, 0.10462222
298, 0.21820001, 0.11386666
299, 0.21820001, 0.12311111
300, 0.21820001, 0.13235556
301, 0.22744446, 0.14160000
302, 0.23668888, 0.14160000
303, 0.24593333, 0.14160000
304, 0.25517777, 0.14160000
305, 0.26442222, 0.14160000
306, 0.27366667, 0.14160000
307, 0.28291112, 0.14160000
308, 0.29215557, 0.14160000
309, 0.30139999, 0.13235556
310, 0.30139999, 0.12311111
311, 0.30139999, 0.11386666
312, 0.30139999, 0.10462222
313, 0.30139999, 0.09537778
314, 0.30139999, 0.08613333
315, 0.30139999, 0.07688889
316, 0.30139999, 0.06764444
317, 0.34640001, 0.06764444
318, 0.34640001, 0.07688889
319, 0.34640001, 0.08613333
320, 0.34640001, 0.09537778
321, 0.34640001, 0.10462222
322, 0.34640001, 0.11386666
323, 0.34640001, 0.12311111
324, 0.34640001, 0.13235556
325, 0.03601075, 0.01040000
326, 0.03602151, 0.02080000
327, 0.03603226, 0.03120000
328, 0.02701614, 0.01040000
329, 0.02703228, 0.02080000
330, 0.02704842, 0.03120000
331, 0.01801615, 0.01040000
332, 0.01803231, 0.02080000
333, 0.01804846, 0.03120000
334, 0.00901078, 0.01040000
335, 0.00902156, 0.02080000
336, 0.00903233, 0.03120000
337, 0.00903233, 0.16879999
338, 0.01804846, 0.16879999
339, 0.02704842, 0.16879999
340, 0.03603226, 0.16879999
341, 0.00902156, 0.17920000
342, 0.01803231, 0.17920000
343, 0.02703228, 0.17920000
344, 0.03602151, 0.17920000
345, 0.00901078, 0.18960000
346, 0.01801615, 0.18960000
347, 0.02701614, 0.18960000
348, 0.03601075, 0.18960000
349, 0.05332000, 0.03120000
350, 0.05332000, 0.02080000
351, 0.05332000, 0.01040000
352, 0.06164000, 0.03120000
353, 0.06164000, 0.02080000
354, 0.06164000, 0.01040000
355, 0.06996000, 0.03120000
356, 0.06996000, 0.02080000
357, 0.06996000, 0.01040000
358, 0.07828000, 0.03120000
359, 0.07828000, 0.02080000
360, 0.07828000, 0.01040000
361, 0.08660000, 0.03120000
362, 0.08660000, 0.02080000
363, 0.08660000, 0.01040000
364, 0.09492000, 0.03120000
365, 0.09492000, 0.02080000
366, 0.09492000, 0.01040000
367, 0.10323999, 0.03120000
368, 0.10323999, 0.02080000
369, 0.10323999, 0.01040000
370, 0.11156000, 0.03120000
371, 0.11156000, 0.02080000
372, 0.11156000, 0.01040000
373, 0.11988001, 0.03120000
374, 0.11988001, 0.02080000
375, 0.11988001, 0.01040000
376, 0.00902156, 0.05000000
377, 0.01803231, 0.05000000
378, 0.02703228, 0.05000000
379, 0.03602151, 0.05000000
380, 0.03602151, 0.15000000
381, 0.02703228, 0.15000000
382, 0.01803231, 0.15000000
383, 0.00902156, 0.15000000
384, 0.05332000, 0.18960000
385, 0.05332000, 0.17920000
386, 0.05332000, 0.16879999
387, 0.06164000, 0.18960000
388, 0.06164000, 0.17920000
389, 0.06164000, 0.16879999
390, 0.06996000, 0.18960000
391, 0.06996000, 0.17920000
392, 0.06996000, 0.16879999
393, 0.07828000, 0.18960000
394, 0.07828000, 0.17920000
395, 0.07828000, 0.16879999
396, 0.08660000, 0.18960000
397, 0.08660000, 0.17920000
398, 0.08660000, 0.16879999
399, 0.09492000, 0.18960000
400, 0.09492000, 0.17920000
401, 0.09492000, 0.16879999
402, 0.10323999, 0.18960000
403, 0.10323999, 0.17920000
404, 0.10323999, 0.16879999
405, 0.11156000, 0.18960000
406, 0.11156000, 0.17920000
407, 0.11156000, 0.16879999
408, 0.11988001, 0.18960000
409, 0.11988001, 0.17920000
410, 0.11988001, 0.16879999
411, 0.13945000, 0.03120000
412, 0.13945000, 0.02080000
413, 0.13945000, 0.01040000
414, 0.15070000, 0.03120000
415, 0.15070000, 0.02080000
416, 0.15070000, 0.01040000
417, 0.16195000, 0.03120000
418, 0.16195000, 0.02080000
419, 0.16195000, 0.01040000
420, 0.17320000, 0.03120000
421, 0.17320000, 0.02080000
422, 0.17320000, 0.01040000
423, 0.18445000, 0.03120000
424, 0.18445000, 0.02080000
425, 0.18445000, 0.01040000
426, 0.19570000, 0.03120000
427, 0.19570000, 0.02080000
428, 0.19570000, 0.01040000
429, 0.20695000, 0.03120000
430, 0.20695000, 0.02080000
431, 0.20695000, 0.01040000
432, 0.11988001, 0.05000000
433, 0.11156000, 0.05000000
434, 0.10323999, 0.05000000
435, 0.09492000, 0.05000000
436, 0.08660000, 0.05000000
437, 0.07828000, 0.05000000
438, 0.06996000, 0.05000000
439, 0.06164000, 0.05000000
440, 0.05332000, 0.05000000
441, 0.03600000, 0.13235556
442, 0.02700000, 0.13235556
443, 0.01800000, 0.13235556
444, 0.00900000, 0.13235556
445, 0.03600000, 0.12311111
446, 0.02700000, 0.12311111
447, 0.01800000, 0.12311111
448, 0.00900000, 0.12311111
449, 0.03600000, 0.11386666
450, 0.02700000, 0.11386666
451, 0.01800000, 0.11386666
452, 0.00900000, 0.11386666
453, 0.03600000, 0.10462222
454, 0.02700000, 0.10462222
455, 0.01800000, 0.10462222
456, 0.00900000, 0.10462222
457, 0.03600000, 0.09537778
458, 0.02700000, 0.09537778
459, 0.01800000, 0.09537778
460, 0.00900000, 0.09537778
461, 0.03600000, 0.08613333
462, 0.02700000, 0.08613333
463, 0.01800000, 0.08613333
464, 0.00900000, 0.08613333
465, 0.03600000, 0.07688889
466, 0.02700000, 0.07688889
467, 0.01800000, 0.07688889
468, 0.00900000, 0.07688889
469, 0.03600000, 0.06764444
470, 0.02700000, 0.06764444
471, 0.01800000, 0.06764444
472, 0.00900000, 0.06764444
473, 0.11988001, 0.15000000
474, 0.11156000, 0.15000000
475, 0.10323999, 0.15000000
476, 0.09492000, 0.15000000
477, 0.08660000, 0.15000000
478, 0.07828000, 0.15000000
479, 0.06996000, 0.15000000
480, 0.06164000, 0.15000000
481, 0.05332000, 0.15000000
482, 0.13945000, 0.18960000
483, 0.13945000, 0.17920000
484, 0.13945000, 0.16879999
485, 0.15070000, 0.18960000
486, 0.15070000, 0.17920000
487, 0.15070000, 0.16879999
488, 0.16195000, 0.18960000
489, 0.16195000, 0.17920000
490, 0.16195000, 0.16879999
491, 0.17320000, 0.18960000
492, 0.17320000, 0.17920000
493, 0.17320000, 0.16879999
494, 0.18445000, 0.18960000
495, 0.18445000, 0.17920000
496, 0.18445000, 0.16879999
497, 0.19570000, 0.18960000
498, 0.19570000, 0.17920000
499, 0.19570000, 0.16879999
500, 0.20695000, 0.18960000
501, 0.20695000, 0.17920000
502, 0.20695000, 0.16879999
503, 0.31039999, 0.03120000
504, 0.31039999, 0.02080000
505, 0.31039999, 0.01040000
506, 0.31940001, 0.03120000
507, 0.31940001, 0.02080000
508, 0.31940001, 0.01040000
509, 0.32840001, 0.03120000
510, 0.32840001, 0.02080000
511, 0.32840001, 0.01040000
512, 0.33740001, 0.03120000
513, 0.33740001, 0.02080000
514, 0.33740001, 0.01040000
515, 0.31039999, 0.18960000
516, 0.31039999, 0.17920000
517, 0.31039999, 0.16879999
518, 0.31940001, 0.18960000
519, 0.31940001, 0.17920000
520, 0.31940001, 0.16879999
521, 0.32840001, 0.18960000
522, 0.32840001, 0.17920000
523, 0.32840001, 0.16879999
524, 0.33740001, 0.18960000
525, 0.33740001, 0.17920000
526, 0.33740001, 0.16879999
527, 0.22744446, 0.03120000
528, 0.22744446, 0.02080000
529, 0.22744446, 0.01040000
530, 0.23668888, 0.03120000
531, 0.23668888, 0.02080000
532, 0.23668888, 0.01040000
533, 0.24593333, 0.03120000
534, 0.24593333, 0.02080000
535, 0.24593333, 0.01040000
536, 0.25517777, 0.03120000
537, 0.25517777, 0.02080000
538, 0.25517777, 0.01040000
539, 0.26442222, 0.03120000
540, 0.26442222, 0.02080000
541, 0.26442222, 0.01040000
542, 0.27366667, 0.03120000
543, 0.27366667, 0.02080000
544, 0.27366667, 0.01040000
545, 0.28291112, 0.03120000
546, 0.28291112, 0.02080000
547, 0.28291112, 0.01040000
548, 0.29215557, 0.03120000
549, 0.29215557, 0.02080000
550, 0.29215557, 0.01040000
551, 0.20695000, 0.05000000
552, 0.19570000, 0.05000000
553, 0.18445000, 0.05000000
554, 0.17320000, 0.05000000
555, 0.16195000, 0.05000000
556, 0.15070000, 0.05000000
557, 0.13945000, 0.05000000
558, 0.11988001, 0.13235556
559, 0.11156000, 0.13235556
560, 0.10323999, 0.13235556
561, 0.09492000, 0.13235556
562, 0.08660000, 0.13235556
563, 0.07828000, 0.13235556
564, 0.06996000, 0.13235556
565, 0.06164000, 0.13235556
566, 0.05332000, 0.13235556
567, 0.11988001, 0.12311111
568, 0.11156000, 0.12311111
569, 0.10323999, 0.12311111
570, 0.09492000, 0.12311111
571, 0.08660000, 0.12311111
572, 0.07828000, 0.12311111
573, 0.06996000, 0.12311111
574, 0.06164000, 0.12311111
575, 0.05332000, 0.12311111
576, 0.11988001, 0.11386666
577, 0.11156000, 0.11386666
578, 0.10323999, 0.11386666
579, 0.09492000, 0.11386666
580, 0.08660000, 0.11386666
581, 0.07828000, 0.11386666
582, 0.06996000, 0.11386666
583, 0.06164000, 0.11386666
584, 0.05332000, 0.11386666
585, 0.11988001, 0.10462222
586, 0.11156000, 0.10462222
587, 0.10323999, 0.10462222
588, 0.09492000, 0.10462222
589, 0.08660000, 0.10462222
590, 0.07828000, 0.10462222
591, 0.06996000, 0.10462222
592, 0.06164000, 0.10462222
593, 0.05332000, 0.10462222
594, 0.11988001, 0.09537778
595, 0.11156000, 0.09537778
596, 0.10323999, 0.09537778
597, 0.09492000, 0.09537778
598, 0.08660000, 0.09537778
599, 0.07828000, 0.09537778
600, 0.06996000, 0.09537778
601, 0.06164000, 0.09537778
602, 0.05332000, 0.09537778
603, 0.11988001, 0.08613333
604, 0.11156000, 0.08613333
605, 0.10323999, 0.08613333
606, 0.09492000, 0.08613333
607, 0.08660000, 0.08613333
608, 0.07828000, 0.08613333
609, 0.06996000, 0.08613333
610, 0.06164000, 0.08613333
611, 0.05332000, 0.08613333
612, 0.11988001, 0.07688889
613, 0.11156000, 0.07688889
614, 0.10323999, 0.07688889
615, 0.09492000, 0.07688889
616, 0.08660000, 0.07688889
617, 0.07828000, 0.07688889
618, 0.06996000, 0.07688889
619, 0.06164000, 0.07688889
620, 0.05332000, 0.07688889
621, 0.11988001, 0.06764444
622, 0.11156000, 0.06764444
623, 0.10323999, 0.06764444
624, 0.09492000, 0.06764444
625, 0.08660000, 0.06764444
626, 0.07828000, 0.06764444
627, 0.06996000, 0.06764444
628, 0.06164000, 0.06764444
629, 0.05332000, 0.06764444
630, 0.20695000, 0.15000000
631, 0.19570000, 0.15000000
632, 0.18445000, 0.15000000
633, 0.17320000, 0.15000000
634, 0.16195000, 0.15000000
635, 0.15070000, 0.15000000
636, 0.13945000, 0.15000000
637, 0.29215557, 0.16879999
638, 0.29215557, 0.17920000
639, 0.29215557, 0.18960000
640, 0.28291112, 0.16879999
641, 0.28291112, 0.17920000
642, 0.28291112, 0.18960000
643, 0.27366667, 0.16879999
644, 0.27366667, 0.17920000
645, 0.27366667, 0.18960000
646, 0.26442222, 0.16879999
647, 0.26442222, 0.17920000
648, 0.26442222, 0.18960000
649, 0.25517777, 0.16879999
650, 0.25517777, 0.17920000
651, 0.25517777, 0.18960000
652, 0.24593333, 0.16879999
653, 0.24593333, 0.17920000
654, 0.24593333, 0.18960000
655, 0.23668888, 0.16879999
656, 0.23668888, 0.17920000
657, 0.23668888, 0.18960000
658, 0.22744446, 0.16879999
659, 0.22744446, 0.17920000
660, 0.22744446, 0.18960000
661, 0.31039999, 0.05000000
662, 0.31940001, 0.05000000
663, 0.32840001, 0.05000000
664, 0.33740001, 0.05000000
665, 0.33740001, 0.15000000
666, 0.32840001, 0.15000000
667, 0.31940001, 0.15000000
668, 0.31039999, 0.15000000
669, 0.22744446, 0.05000000
670, 0.23668888, 0.05000000
671, 0.24593333, 0.05000000
672, 0.25517777, 0.05000000
673, 0.26442222, 0.05000000
674, 0.27366667, 0.05000000
675, 0.28291112, 0.05000000
676, 0.29215557, 0.05000000
677, 0.20695000, 0.13235556
678, 0.19570000, 0.13235556
679, 0.18445000, 0.13235556
680, 0.17320000, 0.13235556
681, 0.16195000, 0.13235556
682, 0.15070000, 0.13235556
683, 0.13945000, 0.13235556
684, 0.20695000, 0.12311111
685, 0.19570000, 0.12311111
686, 0.18445000, 0.12311111
687, 0.17320000, 0.12311111
688, 0.16195000, 0.12311111
689, 0.15070000, 0.12311111
690, 0.13945000, 0.12311111
691, 0.20695000, 0.11386666
692, 0.19570000, 0.11386666
693, 0.18445000, 0.11386666
694, 0.17320000, 0.11386666
695, 0.16195000, 0.11386666
696, 0.15070000, 0.11386666
697, 0.13945000, 0.11386666
698, 0.20695000, 0.10462222
699, 0.19570000, 0.10462222
700, 0.18445000, 0.10462222
701, 0.17320000, 0.10462222
702, 0.16195000, 0.10462222
703, 0.15070000, 0.10462222
704, 0.13945000, 0.10462222
705, 0.20695000, 0.09537778
706, 0.19570000, 0.09537778
707, 0.18445000, 0.09537778
708, 0.17320000, 0.09537778
709, 0.16195000, 0.09537778
710, 0.15070000, 0.09537778
711, 0.13945000, 0.09537778
712, 0.20695000, 0.08613333
713, 0.19570000, 0.08613333
714, 0.18445000, 0.08613333
715, 0.17320000, 0.08613333
716, 0.16195000, 0.08613333
717, 0.15070000, 0.08613333
718, 0.13945000, 0.08613333
719, 0.20695000, 0.07688889
720, 0.19570000, 0.07688889
721, 0.18445000, 0.07688889
722, 0.17320000, 0.07688889
723, 0.16195000, 0.07688889
724, 0.15070000, 0.07688889
725, 0.13945000, 0.07688889
726, 0.20695000, 0.06764444
727, 0.19570000, 0.06764444
728, 0.18445000, 0.06764444
729, 0.17320000, 0.06764444
730, 0.16195000, 0.06764444
731, 0.15070000, 0.06764444
732, 0.13945000, 0.06764444
733, 0.29215557, 0.15000000
734, 0.28291112, 0.15000000
735, 0.27366667, 0.15000000
736, 0.26442222, 0.15000000
737, 0.25517777, 0.15000000
738, 0.24593333, 0.15000000
739, 0.23668888, 0.15000000
740, 0.22744446, 0.15000000
741, 0.33740001, 0.13235556
742, 0.32840001, 0.13235556
743, 0.31940001, 0.13235556
744, 0.31039999, 0.13235556
745, 0.33740001, 0.12311111
746, 0.32840001, 0.12311111
747, 0.31940001, 0.12311111
748, 0.31039999, 0.12311111
749, 0.33740001, 0.11386666
750, 0.32840001, 0.11386666
751, 0.31940001, 0.11386666
752, 0.31039999, 0.11386666
753, 0.33740001, 0.10462222
754, 0.32840001, 0.10462222
755, 0.31940001, 0.10462222
756, 0.31039999, 0.10462222
757, 0.33740001, 0.09537778
758, 0.32840001, 0.09537778
759, 0.31940001, 0.09537778
760, 0.31039999, 0.09537778
761, 0.33740001, 0.08613333
762, 0.32840001, 0.08613333
763, 0.31940001, 0.08613333
764, 0.31039999, 0.08613333
765, 0.33740001, 0.07688889
766, 0.32840001, 0.07688889
767, 0.31940001, 0.07688889
768, 0.31039999, 0.07688889
769, 0.33740001, 0.06764444
770, 0.32840001, 0.06764444
771, 0.31940001, 0.06764444
772, 0.31039999, 0.06764444
773, 0.29215557, 0.06764444
774, 0.29215557, 0.07688889
775, 0.29215557, 0.08613333
776, 0.29215557, 0.09537778
777, 0.29215557, 0.10462222
778, 0.29215557, 0.11386666
779, 0.29215557, 0.12311111
780, 0.29215557, 0.13235556
781, 0.28291112, 0.06764444
782, 0.28291112, 0.07688889
783, 0.28291112, 0.08613333
784, 0.28291112, 0.09537778
785, 0.28291112, 0.10462222
786, 0.28291112, 0.11386666
787, 0.28291112, 0.12311111
788, 0.28291112, 0.13235556
789, 0.27366667, 0.06764444
790, 0.27366667, 0.07688889
791, 0.27366667, 0.08613333
792, 0.27366667, 0.09537778
793, 0.27366667, 0.10462222
794, 0.27366667, 0.11386666
795, 0.27366667, 0.12311111
796, 0.27366667, 0.13235556
797, 0.26442222, 0.06764444
798, 0.26442222, 0.07688889
799, 0.26442222, 0.08613333
800, 0.26442222, 0.09537778
801, 0.26442222, 0.10462222
802, 0.26442222, 0.11386666
803, 0.26442222, 0.12311111
804, 0.26442222, 0.13235556
805, 0.25517777, 0.06764444
806, 0.25517777, 0.07688889
807, 0.25517777, 0.08613333
808, 0.25517777, 0.09537778
809, 0.25517777, 0.10462222
810, 0.25517777, 0.11386666
811, 0.25517777, 0.12311111
812, 0.25517777, 0.13235556
813, 0.24593333, 0.06764444
814, 0.24593333, 0.07688889
815, 0.24593333, 0.08613333
816, 0.24593333, 0.09537778
817, 0.24593333, 0.10462222
818, 0.24593333, 0.11386666
819, 0.24593333, 0.12311111
820, 0.24593333, 0.13235556
821, 0.23668888, 0.06764444
822, 0.23668888, 0.07688889
823, 0.23668888, 0.08613333
824, 0.23668888, 0.09537778
825, 0.23668888, 0.10462222
826, 0.23668888, 0.11386666
827, 0.23668888, 0.12311111
828, 0.23668888, 0.13235556
829, 0.22744446, 0.06764444
830, 0.22744446, 0.07688889
831, 0.22744446, 0.08613333
832, 0.22744446, 0.09537778
833, 0.22744446, 0.10462222
834, 0.22744446, 0.11386666
835, 0.22744446, 0.12311111
836, 0.22744446, 0.13235556
*Element, type=CPS4R
 1,   1,  37, 325,  50
 2,  37,  38, 326, 325
 3,  38,  39, 327, 326
 4,  39,   2,  40, 327
 5,  50, 325, 328,  49
 6, 325, 326, 329, 328
 7, 326, 327, 330, 329
 8, 327,  40,  41, 330
 9,  49, 328, 331,  48
10, 328, 329, 332, 331
11, 329, 330, 333, 332
12, 330,  41,  42, 333
13,  48, 331, 334,  47
14, 331, 332, 335, 334
15, 332, 333, 336, 335
16, 333,  42,  43, 336
17,  47, 334,  46,   4
18, 334, 335,  45,  46
19, 335, 336,  44,  45
20, 336,  43,   3,  44
21,   5,  51, 337,  64
22,  51,  52, 338, 337
23,  52,  53, 339, 338
24,  53,  54, 340, 339
25,  54,   6,  55, 340
26,  64, 337, 341,  63
27, 337, 338, 342, 341
28, 338, 339, 343, 342
29, 339, 340, 344, 343
30, 340,  55,  56, 344
31,  63, 341, 345,  62
32, 341, 342, 346, 345
33, 342, 343, 347, 346
34, 343, 344, 348, 347
35, 344,  56,  57, 348
36,  62, 345,  61,   8
37, 345, 346,  60,  61
38, 346, 347,  59,  60
39, 347, 348,  58,  59
40, 348,  57,   7,  58
41,   2,  39, 349,  85
42,  39,  38, 350, 349
43,  38,  37, 351, 350
44,  37,   1,  65, 351
45,  85, 349, 352,  84
46, 349, 350, 353, 352
47, 350, 351, 354, 353
48, 351,  65,  66, 354
49,  84, 352, 355,  83
50, 352, 353, 356, 355
51, 353, 354, 357, 356
52, 354,  66,  67, 357
53,  83, 355, 358,  82
54, 355, 356, 359, 358
55, 356, 357, 360, 359
56, 357,  67,  68, 360
57,  82, 358, 361,  81
58, 358, 359, 362, 361
59, 359, 360, 363, 362
60, 360,  68,  69, 363
61,  81, 361, 364,  80
62, 361, 362, 365, 364
63, 362, 363, 366, 365
64, 363,  69,  70, 366
65,  80, 364, 367,  79
66, 364, 365, 368, 367
67, 365, 366, 369, 368
68, 366,  70,  71, 369
69,  79, 367, 370,  78
70, 367, 368, 371, 370
71, 368, 369, 372, 371
72, 369,  71,  72, 372
73,  78, 370, 373,  77
74, 370, 371, 374, 373
75, 371, 372, 375, 374
76, 372,  72,  73, 375
77,  77, 373,  76,  10
78, 373, 374,  75,  76
79, 374, 375,  74,  75
80, 375,  73,   9,  74
81,   3,  43, 376,  91
82,  43,  42, 377, 376
83,  42,  41, 378, 377
84,  41,  40, 379, 378
85,  40,   2,  86, 379
86,  91, 376,  90,  12
87, 376, 377,  89,  90
88, 377, 378,  88,  89
89, 378, 379,  87,  88
90, 379,  86,  11,  87
 91,   6,  54, 380,  97
 92,  54,  53, 381, 380
 93,  53,  52, 382, 381
 94,  52,  51, 383, 382
 95,  51,   5,  92, 383
 96,  97, 380,  96,  14
 97, 380, 381,  95,  96
 98, 381, 382,  94,  95
 99, 382, 383,  93,  94
100, 383,  92,  13,  93
101,   7,  57, 384, 118
102,  57,  56, 385, 384
103,  56,  55, 386, 385
104,  55,   6,  98, 386
105, 118, 384, 387, 117
106, 384, 385, 388, 387
107, 385, 386, 389, 388
108, 386,  98,  99, 389
109, 117, 387, 390, 116
110, 387, 388, 391, 390
111, 388, 389, 392, 391
112, 389,  99, 100, 392
113, 116, 390, 393, 115
114, 390, 391, 394, 393
115, 391, 392, 395, 394
116, 392, 100, 101, 395
117, 115, 393, 396, 114
118, 393, 394, 397, 396
119, 394, 395, 398, 397
120, 395, 101, 102, 398
121, 114, 396, 399, 113
122, 396, 397, 400, 399
123, 397, 398, 401, 400
124, 398, 102, 103, 401
125, 113, 399, 402, 112
126, 399, 400, 403, 402
127, 400, 401, 404, 403
128, 401, 103, 104, 404
129, 112, 402, 405, 111
130, 402, 403, 406, 405
131, 403, 404, 407, 406
132, 404, 104, 105, 407
133, 111, 405, 408, 110
134, 405, 406, 409, 408
135, 406, 407, 410, 409
136, 407, 105, 106, 410
137, 110, 408, 109,  16
138, 408, 409, 108, 109
139, 409, 410, 107, 108
140, 410, 106,  15, 107
141,  10,  76, 411, 135
142,  76,  75, 412, 411
143,  75,  74, 413, 412
144,  74,   9, 119, 413
145, 135, 411, 414, 134
146, 411, 412, 415, 414
147, 412, 413, 416, 415
148, 413, 119, 120, 416
149, 134, 414, 417, 133
150, 414, 415, 418, 417
151, 415, 416, 419, 418
152, 416, 120, 121, 419
153, 133, 417, 420, 132
154, 417, 418, 421, 420
155, 418, 419, 422, 421
156, 419, 121, 122, 422
157, 132, 420, 423, 131
158, 420, 421, 424, 423
159, 421, 422, 425, 424
160, 422, 122, 123, 425
161, 131, 423, 426, 130
162, 423, 424, 427, 426
163, 424, 425, 428, 427
164, 425, 123, 124, 428
165, 130, 426, 429, 129
166, 426, 427, 430, 429
167, 427, 428, 431, 430
168, 428, 124, 125, 431
169, 129, 429, 128,  18
170, 429, 430, 127, 128
171, 430, 431, 126, 127
172, 431, 125,  17, 126
173,  19, 136, 432, 145
174, 136, 137, 433, 432
175, 137, 138, 434, 433
176, 138, 139, 435, 434
177, 139, 140, 436, 435
178, 140, 141, 437, 436
179, 141, 142, 438, 437
180, 142, 143, 439, 438
181, 143, 144, 440, 439
182, 144,  11,  86, 440
183, 145, 432,  77,  10
184, 432, 433,  78,  77
185, 433, 434,  79,  78
186, 434, 435,  80,  79
187, 435, 436,  81,  80
188, 436, 437,  82,  81
189, 437, 438,  83,  82
190, 438, 439,  84,  83
191, 439, 440,  85,  84
192, 440,  86,   2,  85
193,  14,  96, 441, 161
194,  96,  95, 442, 441
195,  95,  94, 443, 442
196,  94,  93, 444, 443
197,  93,  13, 146, 444
198, 161, 441, 445, 160
199, 441, 442, 446, 445
200, 442, 443, 447, 446
201, 443, 444, 448, 447
202, 444, 146, 147, 448
203, 160, 445, 449, 159
204, 445, 446, 450, 449
205, 446, 447, 451, 450
206, 447, 448, 452, 451
207, 448, 147, 148, 452
208, 159, 449, 453, 158
209, 449, 450, 454, 453
210, 450, 451, 455, 454
211, 451, 452, 456, 455
212, 452, 148, 149, 456
213, 158, 453, 457, 157
214, 453, 454, 458, 457
215, 454, 455, 459, 458
216, 455, 456, 460, 459
217, 456, 149, 150, 460
218, 157, 457, 461, 156
219, 457, 458, 462, 461
220, 458, 459, 463, 462
221, 459, 460, 464, 463
222, 460, 150, 151, 464
223, 156, 461, 465, 155
224, 461, 462, 466, 465
225, 462, 463, 467, 466
226, 463, 464, 468, 467
227, 464, 151, 152, 468
228, 155, 465, 469, 154
229, 465, 466, 470, 469
230, 466, 467, 471, 470
231, 467, 468, 472, 471
232, 468, 152, 153, 472
233, 154, 469,  87,  11
234, 469, 470,  88,  87
235, 470, 471,  89,  88
236, 471, 472,  90,  89
237, 472, 153,  12,  90
238,  20, 162, 473, 171
239, 162,  15, 106, 473
240, 171, 473, 474, 170
241, 473, 106, 105, 474
242, 170, 474, 475, 169
243, 474, 105, 104, 475
244, 169, 475, 476, 168
245, 475, 104, 103, 476
246, 168, 476, 477, 167
247, 476, 103, 102, 477
248, 167, 477, 478, 166
249, 477, 102, 101, 478
250, 166, 478, 479, 165
251, 478, 101, 100, 479
252, 165, 479, 480, 164
253, 479, 100,  99, 480
254, 164, 480, 481, 163
255, 480,  99,  98, 481
256, 163, 481,  97,  14
257, 481,  98,   6,  97
258,  16, 109, 482, 188
259, 109, 108, 483, 482
260, 108, 107, 484, 483
261, 107,  15, 172, 484
262, 188, 482, 485, 187
263, 482, 483, 486, 485
264, 483, 484, 487, 486
265, 484, 172, 173, 487
266, 187, 485, 488, 186
267, 485, 486, 489, 488
268, 486, 487, 490, 489
269, 487, 173, 174, 490
270, 186, 488, 491, 185
271, 488, 489, 492, 491
272, 489, 490, 493, 492
273, 490, 174, 175, 493
274, 185, 491, 494, 184
275, 491, 492, 495, 494
276, 492, 493, 496, 495
277, 493, 175, 176, 496
278, 184, 494, 497, 183
279, 494, 495, 498, 497
280, 495, 496, 499, 498
281, 496, 176, 177, 499
282, 183, 497, 500, 182
283, 497, 498, 501, 500
284, 498, 499, 502, 501
285, 499, 177, 178, 502
286, 182, 500, 181,  22
287, 500, 501, 180, 181
288, 501, 502, 179, 180
289, 502, 178,  21, 179
290,  23, 189, 503, 202
291, 189, 190, 504, 503
292, 190, 191, 505, 504
293, 191,  24, 192, 505
294, 202, 503, 506, 201
295, 503, 504, 507, 506
296, 504, 505, 508, 507
297, 505, 192, 193, 508
298, 201, 506, 509, 200
299, 506, 507, 510, 509
300, 507, 508, 511, 510
301, 508, 193, 194, 511
302, 200, 509, 512, 199
303, 509, 510, 513, 512
304, 510, 511, 514, 513
305, 511, 194, 195, 514
306, 199, 512, 198,  26
307, 512, 513, 197, 198
308, 513, 514, 196, 197
309, 514, 195,  25, 196
310,  27, 203, 515, 216
311, 203, 204, 516, 515
312, 204, 205, 517, 516
313, 205,  28, 206, 517
314, 216, 515, 518, 215
315, 515, 516, 519, 518
316, 516, 517, 520, 519
317, 517, 206, 207, 520
318, 215, 518, 521, 214
319, 518, 519, 522, 521
320, 519, 520, 523, 522
321, 520, 207, 208, 523
322, 214, 521, 524, 213
323, 521, 522, 525, 524
324, 522, 523, 526, 525
325, 523, 208, 209, 526
326, 213, 524, 212,  30
327, 524, 525, 211, 212
328, 525, 526, 210, 211
329, 526, 209,  29, 210
330,  18, 128, 527, 232
331, 128, 127, 528, 527
332, 127, 126, 529, 528
333, 126,  17, 217, 529
334, 232, 527, 530, 231
335, 527, 528, 531, 530
336, 528, 529, 532, 531
337, 529, 217, 218, 532
338, 231, 530, 533, 230
339, 530, 531, 534, 533
340, 531, 532, 535, 534
341, 532, 218, 219, 535
342, 230, 533, 536, 229
343, 533, 534, 537, 536
344, 534, 535, 538, 537
345, 535, 219, 220, 538
346, 229, 536, 539, 228
347, 536, 537, 540, 539
348, 537, 538, 541, 540
349, 538, 220, 221, 541
350, 228, 539, 542, 227
351, 539, 540, 543, 542
352, 540, 541, 544, 543
353, 541, 221, 222, 544
354, 227, 542, 545, 226
355, 542, 543, 546, 545
356, 543, 544, 547, 546
357, 544, 222, 223, 547
358, 226, 545, 548, 225
359, 545, 546, 549, 548
360, 546, 547, 550, 549
361, 547, 223, 224, 550
362, 225, 548, 189,  23
363, 548, 549, 190, 189
364, 549, 550, 191, 190
365, 550, 224,  24, 191
366,  31, 233, 551, 240
367, 233, 234, 552, 551
368, 234, 235, 553, 552
369, 235, 236, 554, 553
370, 236, 237, 555, 554
371, 237, 238, 556, 555
372, 238, 239, 557, 556
373, 239,  19, 145, 557
374, 240, 551, 129,  18
375, 551, 552, 130, 129
376, 552, 553, 131, 130
377, 553, 554, 132, 131
378, 554, 555, 133, 132
379, 555, 556, 134, 133
380, 556, 557, 135, 134
381, 557, 145,  10, 135
382,  20, 171, 558, 248
383, 171, 170, 559, 558
384, 170, 169, 560, 559
385, 169, 168, 561, 560
386, 168, 167, 562, 561
387, 167, 166, 563, 562
388, 166, 165, 564, 563
389, 165, 164, 565, 564
390, 164, 163, 566, 565
391, 163,  14, 161, 566
392, 248, 558, 567, 247
393, 558, 559, 568, 567
394, 559, 560, 569, 568
395, 560, 561, 570, 569
396, 561, 562, 571, 570
397, 562, 563, 572, 571
398, 563, 564, 573, 572
399, 564, 565, 574, 573
400, 565, 566, 575, 574
401, 566, 161, 160, 575
402, 247, 567, 576, 246
403, 567, 568, 577, 576
404, 568, 569, 578, 577
405, 569, 570, 579, 578
406, 570, 571, 580, 579
407, 571, 572, 581, 580
408, 572, 573, 582, 581
409, 573, 574, 583, 582
410, 574, 575, 584, 583
411, 575, 160, 159, 584
412, 246, 576, 585, 245
413, 576, 577, 586, 585
414, 577, 578, 587, 586
415, 578, 579, 588, 587
416, 579, 580, 589, 588
417, 580, 581, 590, 589
418, 581, 582, 591, 590
419, 582, 583, 592, 591
420, 583, 584, 593, 592
421, 584, 159, 158, 593
422, 245, 585, 594, 244
423, 585, 586, 595, 594
424, 586, 587, 596, 595
425, 587, 588, 597, 596
426, 588, 589, 598, 597
427, 589, 590, 599, 598
428, 590, 591, 600, 599
429, 591, 592, 601, 600
430, 592, 593, 602, 601
431, 593, 158, 157, 602
432, 244, 594, 603, 243
433, 594, 595, 604, 603
434, 595, 596, 605, 604
435, 596, 597, 606, 605
436, 597, 598, 607, 606
437, 598, 599, 608, 607
438, 599, 600, 609, 608
439, 600, 601, 610, 609
440, 601, 602, 611, 610
441, 602, 157, 156, 611
442, 243, 603, 612, 242
443, 603, 604, 613, 612
444, 604, 605, 614, 613
445, 605, 606, 615, 614
446, 606, 607, 616, 615
447, 607, 608, 617, 616
448, 608, 609, 618, 617
449, 609, 610, 619, 618
450, 610, 611, 620, 619
451, 611, 156, 155, 620
452, 242, 612, 621, 241
453, 612, 613, 622, 621
454, 613, 614, 623, 622
455, 614, 615, 624, 623
456, 615, 616, 625, 624
457, 616, 617, 626, 625
458, 617, 618, 627, 626
459, 618, 619, 628, 627
460, 619, 620, 629, 628
461, 620, 155, 154, 629
462, 241, 621, 136,  19
463, 621, 622, 137, 136
464, 622, 623, 138, 137
465, 623, 624, 139, 138
466, 624, 625, 140, 139
467, 625, 626, 141, 140
468, 626, 627, 142, 141
469, 627, 628, 143, 142
470, 628, 629, 144, 143
471, 629, 154,  11, 144
472,  32, 249, 630, 256
473, 249,  21, 178, 630
474, 256, 630, 631, 255
475, 630, 178, 177, 631
476, 255, 631, 632, 254
477, 631, 177, 176, 632
478, 254, 632, 633, 253
479, 632, 176, 175, 633
480, 253, 633, 634, 252
481, 633, 175, 174, 634
482, 252, 634, 635, 251
483, 634, 174, 173, 635
484, 251, 635, 636, 250
485, 635, 173, 172, 636
486, 250, 636, 162,  20
487, 636, 172,  15, 162
488,  28, 205, 637, 272
489, 205, 204, 638, 637
490, 204, 203, 639, 638
491, 203,  27, 257, 639
492, 272, 637, 640, 271
493, 637, 638, 641, 640
494, 638, 639, 642, 641
495, 639, 257, 258, 642
496, 271, 640, 643, 270
497, 640, 641, 644, 643
498, 641, 642, 645, 644
499, 642, 258, 259, 645
500, 270, 643, 646, 269
501, 643, 644, 647, 646
502, 644, 645, 648, 647
503, 645, 259, 260, 648
504, 269, 646, 649, 268
505, 646, 647, 650, 649
506, 647, 648, 651, 650
507, 648, 260, 261, 651
508, 268, 649, 652, 267
509, 649, 650, 653, 652
510, 650, 651, 654, 653
511, 651, 261, 262, 654
512, 267, 652, 655, 266
513, 652, 653, 656, 655
514, 653, 654, 657, 656
515, 654, 262, 263, 657
516, 266, 655, 658, 265
517, 655, 656, 659, 658
518, 656, 657, 660, 659
519, 657, 263, 264, 660
520, 265, 658, 179,  21
521, 658, 659, 180, 179
522, 659, 660, 181, 180
523, 660, 264,  22, 181
524,  23, 202, 661, 278
525, 202, 201, 662, 661
526, 201, 200, 663, 662
527, 200, 199, 664, 663
528, 199,  26, 273, 664
529, 278, 661, 277,  34
530, 661, 662, 276, 277
531, 662, 663, 275, 276
532, 663, 664, 274, 275
533, 664, 273,  33, 274
534,  29, 209, 665, 284
535, 209, 208, 666, 665
536, 208, 207, 667, 666
537, 207, 206, 668, 667
538, 206,  28, 279, 668
539, 284, 665, 283,  36
540, 665, 666, 282, 283
541, 666, 667, 281, 282
542, 667, 668, 280, 281
543, 668, 279,  35, 280
544,  31, 240, 669, 292
545, 240,  18, 232, 669
546, 292, 669, 670, 291
547, 669, 232, 231, 670
548, 291, 670, 671, 290
549, 670, 231, 230, 671
550, 290, 671, 672, 289
551, 671, 230, 229, 672
552, 289, 672, 673, 288
553, 672, 229, 228, 673
554, 288, 673, 674, 287
555, 673, 228, 227, 674
556, 287, 674, 675, 286
557, 674, 227, 226, 675
558, 286, 675, 676, 285
559, 675, 226, 225, 676
560, 285, 676, 278,  34
561, 676, 225,  23, 278
562,  32, 256, 677, 300
563, 256, 255, 678, 677
564, 255, 254, 679, 678
565, 254, 253, 680, 679
566, 253, 252, 681, 680
567, 252, 251, 682, 681
568, 251, 250, 683, 682
569, 250,  20, 248, 683
570, 300, 677, 684, 299
571, 677, 678, 685, 684
572, 678, 679, 686, 685
573, 679, 680, 687, 686
574, 680, 681, 688, 687
575, 681, 682, 689, 688
576, 682, 683, 690, 689
577, 683, 248, 247, 690
578, 299, 684, 691, 298
579, 684, 685, 692, 691
580, 685, 686, 693, 692
581, 686, 687, 694, 693
582, 687, 688, 695, 694
583, 688, 689, 696, 695
584, 689, 690, 697, 696
585, 690, 247, 246, 697
586, 298, 691, 698, 297
587, 691, 692, 699, 698
588, 692, 693, 700, 699
589, 693, 694, 701, 700
590, 694, 695, 702, 701
591, 695, 696, 703, 702
592, 696, 697, 704, 703
593, 697, 246, 245, 704
594, 297, 698, 705, 296
595, 698, 699, 706, 705
596, 699, 700, 707, 706
597, 700, 701, 708, 707
598, 701, 702, 709, 708
599, 702, 703, 710, 709
600, 703, 704, 711, 710
601, 704, 245, 244, 711
602, 296, 705, 712, 295
603, 705, 706, 713, 712
604, 706, 707, 714, 713
605, 707, 708, 715, 714
606, 708, 709, 716, 715
607, 709, 710, 717, 716
608, 710, 711, 718, 717
609, 711, 244, 243, 718
610, 295, 712, 719, 294
611, 712, 713, 720, 719
612, 713, 714, 721, 720
613, 714, 715, 722, 721
614, 715, 716, 723, 722
615, 716, 717, 724, 723
616, 717, 718, 725, 724
617, 718, 243, 242, 725
618, 294, 719, 726, 293
619, 719, 720, 727, 726
620, 720, 721, 728, 727
621, 721, 722, 729, 728
622, 722, 723, 730, 729
623, 723, 724, 731, 730
624, 724, 725, 732, 731
625, 725, 242, 241, 732
626, 293, 726, 233,  31
627, 726, 727, 234, 233
628, 727, 728, 235, 234
629, 728, 729, 236, 235
630, 729, 730, 237, 236
631, 730, 731, 238, 237
632, 731, 732, 239, 238
633, 732, 241,  19, 239
634,  35, 279, 733, 308
635, 279,  28, 272, 733
636, 308, 733, 734, 307
637, 733, 272, 271, 734
638, 307, 734, 735, 306
639, 734, 271, 270, 735
640, 306, 735, 736, 305
641, 735, 270, 269, 736
642, 305, 736, 737, 304
643, 736, 269, 268, 737
644, 304, 737, 738, 303
645, 737, 268, 267, 738
646, 303, 738, 739, 302
647, 738, 267, 266, 739
648, 302, 739, 740, 301
649, 739, 266, 265, 740
650, 301, 740, 249,  32
651, 740, 265,  21, 249
652,  36, 283, 741, 324
653, 283, 282, 742, 741
654, 282, 281, 743, 742
655, 281, 280, 744, 743
656, 280,  35, 309, 744
657, 324, 741, 745, 323
658, 741, 742, 746, 745
659, 742, 743, 747, 746
660, 743, 744, 748, 747
661, 744, 309, 310, 748
662, 323, 745, 749, 322
663, 745, 746, 750, 749
664, 746, 747, 751, 750
665, 747, 748, 752, 751
666, 748, 310, 311, 752
667, 322, 749, 753, 321
668, 749, 750, 754, 753
669, 750, 751, 755, 754
670, 751, 752, 756, 755
671, 752, 311, 312, 756
672, 321, 753, 757, 320
673, 753, 754, 758, 757
674, 754, 755, 759, 758
675, 755, 756, 760, 759
676, 756, 312, 313, 760
677, 320, 757, 761, 319
678, 757, 758, 762, 761
679, 758, 759, 763, 762
680, 759, 760, 764, 763
681, 760, 313, 314, 764
682, 319, 761, 765, 318
683, 761, 762, 766, 765
684, 762, 763, 767, 766
685, 763, 764, 768, 767
686, 764, 314, 315, 768
687, 318, 765, 769, 317
688, 765, 766, 770, 769
689, 766, 767, 771, 770
690, 767, 768, 772, 771
691, 768, 315, 316, 772
692, 317, 769, 274,  33
693, 769, 770, 275, 274
694, 770, 771, 276, 275
695, 771, 772, 277, 276
696, 772, 316,  34, 277
697,  34, 316, 773, 285
698, 316, 315, 774, 773
699, 315, 314, 775, 774
700, 314, 313, 776, 775
701, 313, 312, 777, 776
702, 312, 311, 778, 777
703, 311, 310, 779, 778
704, 310, 309, 780, 779
705, 309,  35, 308, 780
706, 285, 773, 781, 286
707, 773, 774, 782, 781
708, 774, 775, 783, 782
709, 775, 776, 784, 783
710, 776, 777, 785, 784
711, 777, 778, 786, 785
712, 778, 779, 787, 786
713, 779, 780, 788, 787
714, 780, 308, 307, 788
715, 286, 781, 789, 287
716, 781, 782, 790, 789
717, 782, 783, 791, 790
718, 783, 784, 792, 791
719, 784, 785, 793, 792
720, 785, 786, 794, 793
721, 786, 787, 795, 794
722, 787, 788, 796, 795
723, 788, 307, 306, 796
724, 287, 789, 797, 288
725, 789, 790, 798, 797
726, 790, 791, 799, 798
727, 791, 792, 800, 799
728, 792, 793, 801, 800
729, 793, 794, 802, 801
730, 794, 795, 803, 802
731, 795, 796, 804, 803
732, 796, 306, 305, 804
733, 288, 797, 805, 289
734, 797, 798, 806, 805
735, 798, 799, 807, 806
736, 799, 800, 808, 807
737, 800, 801, 809, 808
738, 801, 802, 810, 809
739, 802, 803, 811, 810
740, 803, 804, 812, 811
741, 804, 305, 304, 812
742, 289, 805, 813, 290
743, 805, 806, 814, 813
744, 806, 807, 815, 814
745, 807, 808, 816, 815
746, 808, 809, 817, 816
747, 809, 810, 818, 817
748, 810, 811, 819, 818
749, 811, 812, 820, 819
750, 812, 304, 303, 820
751, 290, 813, 821, 291
752, 813, 814, 822, 821
753, 814, 815, 823, 822
754, 815, 816, 824, 823
755, 816, 817, 825, 824
756, 817, 818, 826, 825
757, 818, 819, 827, 826
758, 819, 820, 828, 827
759, 820, 303, 302, 828
760, 291, 821, 829, 292
761, 821, 822, 830, 829
762, 822, 823, 831, 830
763, 823, 824, 832, 831
764, 824, 825, 833, 832
765, 825, 826, 834, 833
766, 826, 827, 835, 834
767, 827, 828, 836, 835
768, 828, 302, 301, 836
769, 292, 829, 293,  31
770, 829, 830, 294, 293
771, 830, 831, 295, 294
772, 831, 832, 296, 295
773, 832, 833, 297, 296
774, 833, 834, 298, 297
775, 834, 835, 299, 298
776, 835, 836, 300, 299
777, 836, 301,  32, 300
*Nset, nset=Part-1-1_elasticity
   1,   2,   6,   7,   9,  10,  15,  16,  31,  32,  34,  35,  37,  38,  39,  55
  56,  57,  65,  66,  67,  68,  69,  70,  71,  72,  73,  74,  75,  76,  77,  78
  79,  80,  81,  82,  83,  84,  85,  98,  99, 100, 101, 102, 103, 104, 105, 106
 107, 108, 109, 110, 111, 112, 113, 114, 115, 116, 117, 118, 285, 286, 287, 288
 289, 290, 291, 292, 293, 294, 295, 296, 297, 298, 299, 300, 301, 302, 303, 304
 305, 306, 307, 308, 309, 310, 311, 312, 313, 314, 315, 316, 349, 350, 351, 352
 353, 354, 355, 356, 357, 358, 359, 360, 361, 362, 363, 364, 365, 366, 367, 368
 369, 370, 371, 372, 373, 374, 375, 384, 385, 386, 387, 388, 389, 390, 391, 392
 393, 394, 395, 396, 397, 398, 399, 400, 401, 402, 403, 404, 405, 406, 407, 408
 409, 410, 773, 774, 775, 776, 777, 778, 779, 780, 781, 782, 783, 784, 785, 786
 787, 788, 789, 790, 791, 792, 793, 794, 795, 796, 797, 798, 799, 800, 801, 802
 803, 804, 805, 806, 807, 808, 809, 810, 811, 812, 813, 814, 815, 816, 817, 818
 819, 820, 821, 822, 823, 824, 825, 826, 827, 828, 829, 830, 831, 832, 833, 834
 835, 836
*Elset, elset=Part-1-1_elasticity
  41,  42,  43,  44,  45,  46,  47,  48,  49,  50,  51,  52,  53,  54,  55,  56
  57,  58,  59,  60,  61,  62,  63,  64,  65,  66,  67,  68,  69,  70,  71,  72
  73,  74,  75,  76,  77,  78,  79,  80, 101, 102, 103, 104, 105, 106, 107, 108
 109, 110, 111, 112, 113, 114, 115, 116, 117, 118, 119, 120, 121, 122, 123, 124
 125, 126, 127, 128, 129, 130, 131, 132, 133, 134, 135, 136, 137, 138, 139, 140
 697, 698, 699, 700, 701, 702, 703, 704, 705, 706, 707, 708, 709, 710, 711, 712
 713, 714, 715, 716, 717, 718, 719, 720, 721, 722, 723, 724, 725, 726, 727, 728
 729, 730, 731, 732, 733, 734, 735, 736, 737, 738, 739, 740, 741, 742, 743, 744
 745, 746, 747, 748, 749, 750, 751, 752, 753, 754, 755, 756, 757, 758, 759, 760
 761, 762, 763, 764, 765, 766, 767, 768, 769, 770, 771, 772, 773, 774, 775, 776
 777,
*Nset, nset=Part-1-1_plasticity
   1,   2,   3,   4,   5,   6,   7,   8,   9,  10,  11,  12,  13,  14,  15,  16
  17,  18,  19,  20,  21,  22,  23,  24,  25,  26,  27,  28,  29,  30,  31,  32
  33,  34,  35,  36,  37,  38,  39,  40,  41,  42,  43,  44,  45,  46,  47,  48
  49,  50,  51,  52,  53,  54,  55,  56,  57,  58,  59,  60,  61,  62,  63,  64
  74,  75,  76,  77,  78,  79,  80,  81,  82,  83,  84,  85,  86,  87,  88,  89
  90,  91,  92,  93,  94,  95,  96,  97,  98,  99, 100, 101, 102, 103, 104, 105
 106, 107, 108, 109, 119, 120, 121, 122, 123, 124, 125, 126, 127, 128, 129, 130
 131, 132, 133, 134, 135, 136, 137, 138, 139, 140, 141, 142, 143, 144, 145, 146
 147, 148, 149, 150, 151, 152, 153, 154, 155, 156, 157, 158, 159, 160, 161, 162
 163, 164, 165, 166, 167, 168, 169, 170, 171, 172, 173, 174, 175, 176, 177, 178
 179, 180, 181, 182, 183, 184, 185, 186, 187, 188, 189, 190, 191, 192, 193, 194
 195, 196, 197, 198, 199, 200, 201, 202, 203, 204, 205, 206, 207, 208, 209, 210
 211, 212, 213, 214, 215, 216, 217, 218, 219, 220, 221, 222, 223, 224, 225, 226
 227, 228, 229, 230, 231, 232, 233, 234, 235, 236, 237, 238, 239, 240, 241, 242
 243, 244, 245, 246, 247, 248, 249, 250, 251, 252, 253, 254, 255, 256, 257, 258
 259, 260, 261, 262, 263, 264, 265, 266, 267, 268, 269, 270, 271, 272, 273, 274
 275, 276, 277, 278, 279, 280, 281, 282, 283, 284, 285, 286, 287, 288, 289, 290
 291, 292, 293, 294, 295, 296, 297, 298, 299, 300, 301, 302, 303, 304, 305, 306
 307, 308, 309, 310, 311, 312, 313, 314, 315, 316, 317, 318, 319, 320, 321, 322
 323, 324, 325, 326, 327, 328, 329, 330, 331, 332, 333, 334, 335, 336, 337, 338
 339, 340, 341, 342, 343, 344, 345, 346, 347, 348, 376, 377, 378, 379, 380, 381
 382, 383, 411, 412, 413, 414, 415, 416, 417, 418, 419, 420, 421, 422, 423, 424
 425, 426, 427, 428, 429, 430, 431, 432, 433, 434, 435, 436, 437, 438, 439, 440
 441, 442, 443, 444, 445, 446, 447, 448, 449, 450, 451, 452, 453, 454, 455, 456
 457, 458, 459, 460, 461, 462, 463, 464, 465, 466, 467, 468, 469, 470, 471, 472
 473, 474, 475, 476, 477, 478, 479, 480, 481, 482, 483, 484, 485, 486, 487, 488
 489, 490, 491, 492, 493, 494, 495, 496, 497, 498, 499, 500, 501, 502, 503, 504
 505, 506, 507, 508, 509, 510, 511, 512, 513, 514, 515, 516, 517, 518, 519, 520
 521, 522, 523, 524, 525, 526, 527, 528, 529, 530, 531, 532, 533, 534, 535, 536
 537, 538, 539, 540, 541, 542, 543, 544, 545, 546, 547, 548, 549, 550, 551, 552
 553, 554, 555, 556, 557, 558, 559, 560, 561, 562, 563, 564, 565, 566, 567, 568
 569, 570, 571, 572, 573, 574, 575, 576, 577, 578, 579, 580, 581, 582, 583, 584
 585, 586, 587, 588, 589, 590, 591, 592, 593, 594, 595, 596, 597, 598, 599, 600
 601, 602, 603, 604, 605, 606, 607, 608, 609, 610, 611, 612, 613, 614, 615, 616
 617, 618, 619, 620, 621, 622, 623, 624, 625, 626, 627, 628, 629, 630, 631, 632
 633, 634, 635, 636, 637, 638, 639, 640, 641, 642, 643, 644, 645, 646, 647, 648
 649, 650, 651, 652, 653, 654, 655, 656, 657, 658, 659, 660, 661, 662, 663, 664
 665, 666, 667, 668, 669, 670, 671, 672, 673, 674, 675, 676, 677, 678, 679, 680
 681, 682, 683, 684, 685, 686, 687, 688, 689, 690, 691, 692, 693, 694, 695, 696
 697, 698, 699, 700, 701, 702, 703, 704, 705, 706, 707, 708, 709, 710, 711, 712
 713, 714, 715, 716, 717, 718, 719, 720, 721, 722, 723, 724, 725, 726, 727, 728
 729, 730, 731, 732, 733, 734, 735, 736, 737, 738, 739, 740, 741, 742, 743, 744
 745, 746, 747, 748, 749, 750, 751, 752, 753, 754, 755, 756, 757, 758, 759, 760
 761, 762, 763, 764, 765, 766, 767, 768, 769, 770, 771, 772
*Elset, elset=Part-1-1_plasticity
   1,   2,   3,   4,   5,   6,   7,   8,   9,  10,  11,  12,  13,  14,  15,  16
  17,  18,  19,  20,  21,  22,  23,  24,  25,  26,  27,  28,  29,  30,  31,  32
  33,  34,  35,  36,  37,  38,  39,  40,  81,  82,  83,  84,  85,  86,  87,  88
  89,  90,  91,  92,  93,  94,  95,  96,  97,  98,  99, 100, 141, 142, 143, 144
 145, 146, 147, 148, 149, 150, 151, 152, 153, 154, 155, 156, 157, 158, 159, 160
 161, 162, 163, 164, 165, 166, 167, 168, 169, 170, 171, 172, 173, 174, 175, 176
 177, 178, 179, 180, 181, 182, 183, 184, 185, 186, 187, 188, 189, 190, 191, 192
 193, 194, 195, 196, 197, 198, 199, 200, 201, 202, 203, 204, 205, 206, 207, 208
 209, 210, 211, 212, 213, 214, 215, 216, 217, 218, 219, 220, 221, 222, 223, 224
 225, 226, 227, 228, 229, 230, 231, 232, 233, 234, 235, 236, 237, 238, 239, 240
 241, 242, 243, 244, 245, 246, 247, 248, 249, 250, 251, 252, 253, 254, 255, 256
 257, 258, 259, 260, 261, 262, 263, 264, 265, 266, 267, 268, 269, 270, 271, 272
 273, 274, 275, 276, 277, 278, 279, 280, 281, 282, 283, 284, 285, 286, 287, 288
 289, 290, 291, 292, 293, 294, 295, 296, 297, 298, 299, 300, 301, 302, 303, 304
 305, 306, 307, 308, 309, 310, 311, 312, 313, 314, 315, 316, 317, 318, 319, 320
 321, 322, 323, 324, 325, 326, 327, 328, 329, 330, 331, 332, 333, 334, 335, 336
 337, 338, 339, 340, 341, 342, 343, 344, 345, 346, 347, 348, 349, 350, 351, 352
 353, 354, 355, 356, 357, 358, 359, 360, 361, 362, 363, 364, 365, 366, 367, 368
 369, 370, 371, 372, 373, 374, 375, 376, 377, 378, 379, 380, 381, 382, 383, 384
 385, 386, 387, 388, 389, 390, 391, 392, 393, 394, 395, 396, 397, 398, 399, 400
 401, 402, 403, 404, 405, 406, 407, 408, 409, 410, 411, 412, 413, 414, 415, 416
 417, 418, 419, 420, 421, 422, 423, 424, 425, 426, 427, 428, 429, 430, 431, 432
 433, 434, 435, 436, 437, 438, 439, 440, 441, 442, 443, 444, 445, 446, 447, 448
 449, 450, 451, 452, 453, 454, 455, 456, 457, 458, 459, 460, 461, 462, 463, 464
 465, 466, 467, 468, 469, 470, 471, 472, 473, 474, 475, 476, 477, 478, 479, 480
 481, 482, 483, 484, 485, 486, 487, 488, 489, 490, 491, 492, 493, 494, 495, 496
 497, 498, 499, 500, 501, 502, 503, 504, 505, 506, 507, 508, 509, 510, 511, 512
 513, 514, 515, 516, 517, 518, 519, 520, 521, 522, 523, 524, 525, 526, 527, 528
 529, 530, 531, 532, 533, 534, 535, 536, 537, 538, 539, 540, 541, 542, 543, 544
 545, 546, 547, 548, 549, 550, 551, 552, 553, 554, 555, 556, 557, 558, 559, 560
 561, 562, 563, 564, 565, 566, 567, 568, 569, 570, 571, 572, 573, 574, 575, 576
 577, 578, 579, 580, 581, 582, 583, 584, 585, 586, 587, 588, 589, 590, 591, 592
 593, 594, 595, 596, 597, 598, 599, 600, 601, 602, 603, 604, 605, 606, 607, 608
 609, 610, 611, 612, 613, 614, 615, 616, 617, 618, 619, 620, 621, 622, 623, 624
 625, 626, 627, 628, 629, 630, 631, 632, 633, 634, 635, 636, 637, 638, 639, 640
 641, 642, 643, 644, 645, 646, 647, 648, 649, 650, 651, 652, 653, 654, 655, 656
 657, 658, 659, 660, 661, 662, 663, 664, 665, 666, 667, 668, 669, 670, 671, 672
 673, 674, 675, 676, 677, 678, 679, 680, 681, 682, 683, 684, 685, 686, 687, 688
 689, 690, 691, 692, 693, 694, 695, 696
*System
*Nset, nset=bottom
   1,   4,   9,  17,  24,  25,  47,  48,  49,  50,  65,  66,  67,  68,  69,  70
  71,  72,  73, 119, 120, 121, 122, 123, 124, 125, 192, 193, 194, 195, 217, 218
 219, 220, 221, 222, 223, 224
*Nset, nset=left
   3,   4,   5,   8,  12,  13,  44,  45,  46,  62,  63,  64,  91,  92, 146, 147
 148, 149, 150, 151, 152, 153
*Nset, nset=right
  25,  26,  29,  30,  33,  36, 196, 197, 198, 210, 211, 212, 273, 284, 317, 318
 319, 320, 321, 322, 323, 324
*Nset, nset=top
   7,   8,  16,  22,  27,  30,  58,  59,  60,  61, 110, 111, 112, 113, 114, 115
 116, 117, 118, 182, 183, 184, 185, 186, 187, 188, 213, 214, 215, 216, 257, 258
 259, 260, 261, 262, 263, 264
** 
** MATERIALS
** 
*Material, name=Al
*Elastic
26300., 0.33
*Material, name=SiC
*Elastic
192300., 0.17
